ADDGRID = False
ALGO = Normal
EDIFF = 1e-05
ENCUT = 500
GGA = Ps
IBRION = 0
ISIF = 2
ISMEAR = 0
ISPIN = 1
ISYM = 0
LASPH = True
LCHARG = False
LMAXMIX = 4
LREAL = Auto
LWAVE = False
MDALGO = 2
NBLOCK = 1
NELM = 200
NELMIN = 4
NPAR = 8
NSW = 5000
POTIM = 2
PREC = Normal
SIGMA = 0.05
SMASS = 0
TEBEG = 200
TEEND = 200

ML_LMLFF = True
ML_ISTART = 1
ML_MB = 10000
