# Compound: Li17Sc5Cl32. Old comment: Cl
   1.00000000000000     
    20.5605907439999989    0.0000000000000000    0.0000000000000000
    -0.0211625610000000   20.6266161122000007    0.0000000000000000
    -0.0651815499000000   -0.0589801744000000   20.5742045287000010
   Li   Sc   Cl
   136    40   256
Direct
  0.1854441002127603  0.1831583751512637  0.4480517312079412
  0.1843046563463435  0.1830812528227584  0.9389585260714892
  0.1888440353198093  0.6832478905918167  0.4409542087067482
  0.1814107692952163  0.6841784092183315  0.9433484960359393
  0.6332249830743346  0.1266432260846023  0.4894084769336438
  0.6261387445426053  0.1192160941891556  1.0051049043422278
  0.6935083145541862  0.6921155167053681  0.4389150448227016
  0.6264617975298590  0.6221170062111787 -0.0054028259969195
  0.2474922684758207  0.3686488502327223  0.1235729518736409
  0.2613373345651282  0.3802340737056615  0.6292662347790924
  0.2580861605208087  0.8709615486647209  0.1267563653756714
  0.2634211628513344  0.8708540023785536  0.6415025788041646
  0.7579352049727381  0.3696688103339666  0.1281696001429269
  0.7576384140387626  0.3831064097838464  0.6242749193493323
  0.7593732739153113  0.8897356000711402  0.1269316491024829
  0.7558596579663492  0.8716794679166875  0.6480219460406765
  0.1333884210370871  0.3704071008419504  0.2666476930291267
  0.1282645878918992  0.3704506475898146  0.7501754044255058
  0.1230936454716182  0.8773738694386850  0.2560838648880177
  0.1185472088899316  0.8812069412292415  0.7577787945115977
  0.6385147442333691  0.3642636398957689  0.2629653920042438
  0.6272594822746788  0.3733606957021001  0.7573047923878896
  0.6334233864490073  0.8806923798002871  0.2550346442951785
  0.6266808879160282  0.8763131944632349  0.7522691327773042
  0.3840045954030520  0.2443830997852761  0.1514484692948135
  0.3859315660010937  0.2500309225088352  0.6253053925865469
  0.3949198183656896  0.7452557115929237  0.1382613784378647
  0.3924104435051824  0.7490109848314845  0.6230165492665104
  0.8725632066882765  0.2459428960466247  0.1069664489168321
  0.8906178228051337  0.2506659505580869  0.6370019505234887
  0.9206567577155529  0.7071709617993095  0.1777450252970230
  0.8797421873773471  0.7439010049813997  0.6249787723214750
  0.2425006051899048  0.0029134873395829  0.2396032005265400
  0.2463497549961976  0.0030087240994104  0.7455451791146392
  0.2464159098004487  0.4925851791199501  0.2608228296435505
  0.2550126432612598  0.5058223754092512  0.7681929049147296
  0.7540300982743781  0.0159666365926743  0.2686754978466900
  0.7483144100962389  0.0125612064490593  0.7642625536638079
  0.8064108343936897  0.5574274068313227  0.2936238165127727
  0.7585270958011838  0.5050440180645621  0.7528614358798944
  0.3832740173269244  0.3701443382214439 -0.0009113174217330
  0.3876627785206585  0.3831019845909580  0.5039447743395660
  0.3883500849561863  0.8877451911283705  0.0011554073245116
  0.3841645763347221  0.8913695680816882  0.5094714290505883
  0.9021458516966556  0.3820704787172481 -0.0013582904050080
  0.8824936304151181  0.3830274486197431  0.4996044980881191
  0.8851981098761013  0.8772599925819706  0.0042008108821964
  0.8905649242536627  0.8840046380769948  0.5068822733214515
  0.2348879339342439  0.2337528657328468  0.2504555558809042
  0.2584738909539992  0.2395154707675486  0.7368279136406315
  0.2484737078033104  0.7258350687618099  0.2579974608091220
  0.2405941557988201  0.7467872008071746  0.7548095116480740
  0.7495894379633476  0.2405175562029825  0.2526684974680031
  0.7528940580606621  0.2390578487168732  0.7564777180134730
  0.7440080775615745  0.7543629401929732  0.2388092140611864
  0.7587553082014304  0.7414745600939295  0.7597617612321543
  0.2444407155677330  0.3822642753542079  0.3770137839851799
  0.2392869657280041  0.3625195351650042  0.8687041736565506
  0.2465769156688019  0.8675731535109148  0.3727728955589852
  0.2438034943920715  0.8835249949944267  0.8724634034570488
  0.7458061311226329  0.3727818461437483  0.3750933835711350
  0.7322861861555847  0.3758501703409061  0.8717314954312363
  0.7518447506934783  0.8759660847894900  0.3769873524977499
  0.7509930760587895  0.8757243186774907  0.8853022519204030
  0.1182639192748678  0.3715435504128522  0.4879528496201731
  0.1278557975558202  0.3850733978846357  0.9865696748975987
  0.1143483778224559  0.8747424090146545  0.4860719355720726
  0.1195133346934712  0.8876654256307048  0.9934708840353804
  0.6146429584925799  0.3828509860192681  0.4920144177511758
  0.6225285555949124  0.3839532257122407  0.9920464516678902
  0.6092882682647315  0.8908589727415070  0.4897681702988650
  0.6252966272074644  0.8670785931721955  0.9850046180367111
  0.1372912334385180  0.1152079744212813  0.2570552701982917
  0.1322399017873258  0.1242394890434751  0.7458345758760383
  0.1323704746827617  0.6279123701285987  0.2410558271593931
  0.1317035507528813  0.6363152874215400  0.7500752705737427
  0.6269581770163811  0.1330014132036190  0.2557532372191474
  0.6384505404817905  0.1309499740494522  0.7520330835883433
  0.6407237208833114  0.6274706718207793  0.2450878099634796
  0.6333034789173365  0.6320840294014145  0.7502782689143084
  0.3751938032313490  0.1372891393270565  0.0055265784959210
  0.3786948083040612  0.1242099080600325  0.5044071420580216
  0.3734970461818410  0.6228433984352947  0.0171777063543859
  0.3862033671523561  0.6207911120127027  0.5012959115183069
  0.8724658371508340  0.1142212412096859  1.0060169090251576
  0.8755484949097109  0.1268095730149987  0.5109862780111536
  0.8778437280173848  0.6354735060821292  0.0002393373008650
  0.8816862709733367  0.6141475991377906  0.5079783579084305
  0.2504602143104874  0.1177623459019667  0.1319379743677060
  0.2577673059048184  0.1231671807072324  0.6313909356717057
  0.2521488946394221  0.6209745116861229  0.1421451817156723
  0.2706961097221009  0.6301014159377890  0.6473977573898764
  0.7453706301984983  0.1275911657818354  0.1253052002783702
  0.7507660923761406  0.1273127460357082  0.6331080849698272
  0.7564967319698540  0.6288145276134416  0.1280996266866456
  0.7545677583705032  0.6272543127061284  0.6308207046419290
  0.0003964295357333  0.3667536277611759  0.1269053264644711
  1.0100567448550113  0.3732131241954518  0.6212829238744469
  0.0091747400580358  0.9029610892182840  0.1123287984814886
 -0.0026837900659535  0.8911512092133139  0.6227956601084557
  0.5128785848295639  0.3750795230046003  0.1320855941866197
  0.5091938383057055  0.3728028783199299  0.6250475387010501
  0.4956563256460348  0.8790359769706345  0.1244479887113618
  0.5058169604295444  0.8789339751402130  0.6297386279321578
  0.3759895107908535  0.3734281796526218  0.2615685825917579
  0.3658684818827243  0.3711628379201456  0.7365969402583923
  0.3641785592345575  0.8792797108247400  0.2494990982568608
  0.3794140241450530  0.8747148859645398  0.7541037228948516
  0.8686920789713646  0.3600160254890237  0.2464945127164089
  0.8677662293352887  0.3754022639905709  0.7547723857100195
  0.8849901585997151  0.8877338340131392  0.2380837673793721
  0.8767377057186497  0.8700230125593407  0.7531583269885538
  0.1214583426621535  0.4917119195783031  0.3845380722126069
  0.1236524719452971  0.4903662071124412  0.8860247610565690
  0.1262734198244538  0.9883867231096961  0.3847236366575873
  0.1332643023562320  0.9984894233047124  0.8741292045639909
  0.6301096839878206  0.4854891171707438  0.3827294024054461
  0.6302220344069196  0.4903352911046095  0.8763307613842495
  0.6164084058988430  0.0005821200517098  0.3802704720838382
  0.6145968502070094  0.9804041622198473  0.8712104336023482
  0.3748091813720200  0.0227581220133556  0.1211288770995651
  0.3853474005049411  0.0219998744915874  0.6392618948364169
  0.3777751388582921  0.5075716688587231  0.1376376415975915
  0.3808845193162319  0.5138519312560235  0.6209189425656628
  0.8931421097801792  0.0144130486004292  0.1271276900923408
  0.8862064168199232  0.0155136475303706  0.6191517815538922
  0.8795639081465383  0.5086771159385579  0.1146999579723308
  0.8827894805754386  0.5027123621300220  0.6296991520610309
  1.0128322141569270  0.2542313903747364  0.0013448310925995
  0.9945868456042299  0.2491322500643395  0.5092058738820233
  1.0087507857086253  0.7585023506543321  0.0025218693137732
 -0.0054474171833909  0.7565741578075593  0.5019615527548215
  0.4972778089375485  0.2685801838987531  0.0039691369792282
  0.5153247519526671  0.2534402908334804  0.5008653478953132
  0.4995219302966051  0.7569027835378664  0.0043642998458529
  0.4981795339872162  0.7600362043668115  0.4939722224277979
  0.1223726393245324  0.2393681877633260  0.1302030516094176
  0.1266352164896047  0.2485687735081435  0.6288480099962750
  0.1281631400278816  0.7481092451019591  0.1276728519550783
  0.1301916162909403  0.7549195410938773  0.6207886413168416
  0.6213114227655793  0.2535532893588728  0.1275588944901073
  0.6257217899744013  0.2460238170585483  0.6288963600474500
  0.6329109404463130  0.7587726655657434  0.1222699153607438
  0.6240005918487553  0.7438696736497040  0.6269673966087970
  0.3708434401314216  0.2442789623704905  0.3774899892722698
  0.3755469157319491  0.2504185620348938  0.8753160904812038
  0.3735918818406771  0.7515184180241423  0.3725140241076674
  0.3735631563132698  0.7482903584761635  0.8707769850296726
  0.8666018080008536  0.2497187857135783  0.3723023699772577
  0.8709325830348097  0.2529162434712715  0.8757797715289075
  0.8732023443167897  0.7539292343920672  0.3772674285584443
  0.8734976973224498  0.7523776331428493  0.8776174945303252
 -0.0043362267073306  0.1170336245412174  0.3784967529025019
  0.0016321257329618  0.1227783334279388  0.8775139536171648
  0.0001642862594604  0.6264359269940559  0.3728874593530870
  0.9998375368484855  0.6301414769251534  0.8763402296543681
  0.4939887839143000  0.1129607341622859  0.3816202648247640
  0.5009958408066231  0.1307177428337445  0.8746348143034227
  0.5059471674016386  0.6280093844139297  0.3757593633759456
  0.4992875538590504  0.6226840019249952  0.8751723668257810
  0.2506953864651663 -0.0011027766394601  0.4964006547845969
  0.2556497007982090  0.0027109333261914  0.9941500986456457
  0.2436290947962970  0.4997125761876319  0.5037436918773700
  0.2477614832636156  0.4995905433053875  0.0012937487808182
  0.7470445757199780  0.0047320929200120  0.5103754155347902
  0.7423307113149065  1.0077587652639004  0.9963183493818051
  0.7521608010604739  0.5066001189559969  0.5031972984262731
  0.7542553692158066  0.5022684560831792  1.0011584406753484
  0.5030879237931647  0.4982790810148423  0.2451102728620122
  0.4986449559815636  0.4959118969813678  0.7434443923332439
  0.4952383349236417  0.0024745122817920  0.2432837010075898
  0.4950343391885378  1.0015530247733981  0.7505852577566934
  0.9944601854458474  0.4919509498666640  0.2460839179563230
  1.0051953647421219  0.4968894879377878  0.7454501393483050
 -0.0014282213821674  0.0031940704665119  0.2424150739117834
  0.9991982832123562  0.9960215781205009  0.7468012715588997
  0.1343541771050979  0.1237897461776850  0.1258796794237212
  0.1334624283355101  0.1301905426319737  0.6247220815725695
  0.1250594797249351  0.6316704730872384  0.1240235512685298
  0.1256840373766415  0.6409248195280263  0.6284770261047972
  0.6210155393983861  0.1365271411573104  0.1218587108075244
  0.6303934419373673  0.1285363468508269  0.6244127802985410
  0.6308311089172619  0.6377554504936102  0.1231521292658894
  0.6259888852326709  0.6304160180262072  0.6255727947001830
  0.3706429661382673  0.2521435032373021  0.2609036487982417
  0.3786103316109831  0.2551312542082652  0.7537076189426666
  0.3676354411192185  0.7425296584506067  0.2560230440226960
  0.3673336479749013  0.7551673593122331  0.7509141953522711
  0.8699092268812549  0.2426373784001540  0.2481123326530381
  0.8829912856851828  0.2620485321221969  0.7594184491734859
  0.8741117161087916  0.7629760570956785  0.2550863696899255
  0.8769217752358834  0.7577051206355512  0.7507574284144573
  0.2507466031286428  1.0027560666724011  0.3780906073626627
  0.2561825291277353  0.0089738295488834  0.8799595285435288
  0.2363245926540451  0.5029235697402011  0.3828790838264401
  0.2545554852061945  0.5046884154346912  0.8818331677410758
  0.7646409550607705  0.0065797655125256  0.3890144078625719
  0.7375832845622887  1.0030323798143308  0.8799184090314577
  0.7474999794473914  0.4990738774625317  0.3743041262604095
  0.7486181660229436  0.4982084009096499  0.8813625532529806
  1.0099607843388900  0.3641327626342367  0.0096620929478381
  0.9967696904121142  0.3681777775655006  0.5049457375498944
 -0.0052738175500439  0.8763157224942885  0.0087123143850588
  0.0003571436744592  0.8800988230567752  0.4994312942418033
  0.5007447920140262  0.3839766941520539  0.0171652438254957
  0.4990487644792903  0.3717833097384684  0.4989796787224078
  0.4998053898759267  0.8771024491261494  0.0050957265736326
  0.4996581529369928  0.8760870806698401  0.5096994279593577
  0.1299731580406955 -0.0055915700374282  0.5038198059688853
  0.1377922018356209  1.0068369362230707  1.0037075585381623
  0.1291710105344571  0.4968964425271323  0.4999674780202760
  0.1310497040637620  0.4967724192566165 -0.0008066815557713
  0.6267191228679267  0.0073879287368985  0.5095213640842249
  0.6270891231625184  0.0082097513571728  0.9927163782734703
  0.6369874363500083  0.5114349785759269  0.4940647840488608
  0.6361373954252437  0.5027263110132298  0.0051125891224671
  0.3712131045669519  0.3650259006924539  0.3857227975154883
  0.3691670887135844  0.3673102718370266  0.8800043659722477
  0.3701904784506871  0.8686411425543031  0.3756001238073086
  0.3673197992326817  0.8659481406989309  0.8756204383541758
  0.8695913820510491  0.3660330106267949  0.3749973528965952
  0.8842870256211319  0.3694640201980841  0.8799857113844691
  0.8771134660056765  0.8708117341520717  0.3811584365005651
  0.8751860114322426  0.8689225727918837  0.8800445251433333
  0.2502757755028289  0.1118721966120765  0.2492099536237856
  0.2473575586205086  0.1250690258359875  0.7505970420104455
  0.2419322323111986  0.6099721038213515  0.2561458651608455
  0.2491530289260802  0.6301040622780740  0.7547158054884922
  0.7389473839787516  0.1285086153732778  0.2431262120554205
  0.7557406665941565  0.1271872604878536  0.7491788162456229
  0.7517987984244867  0.6412361971586954  0.2430035962709333
  0.7437506090430952  0.6139634088241199  0.7543807877751502
  1.0029013156857343  0.2389642211879896  0.1349027128093379
  0.0072338231866304  0.2494573797834234  0.6272435213808203
  0.0113048557292406  0.7581349808601241  0.1228756186188153
  0.0052232605860874  0.7533722660615629  0.6143079726490226
  0.5045762053936185  0.2534544161130866  0.1295924386206703
  0.5049011199236898  0.2562122159313533  0.6246163348564593
  0.5127903572709691  0.7628093379696725  0.1300909764210761
  0.5081002449858779  0.7555816768615954  0.6212942749082287
  0.2534233451003735  0.3700743453614061  0.2547785860614448
  0.2470002016942694  0.3875659137711399  0.7495344885133999
  0.2463064821363863  0.8735653301603842  0.2450555115093228
  0.2518057229855650  0.8790382865981706  0.7536856890727185
  0.7558989815397883  0.3796159099468551  0.2428719300467371
  0.7499579156871311  0.3822252551755053  0.7507232608374923
  0.7521314296418449  0.8888730667076205  0.2480903174576406
  0.7524304636868372  0.8783631188518449  0.7594475329380543
  0.3824422586728253  0.2518369049016190  0.4996024240140622
  0.3762450323292125  0.2585862774131809 -0.0051912002572632
  0.3773462661075750  0.7526407327829588  0.4955558025608849
  0.3837889041439457  0.7562909477665644  0.9984715214810231
  0.8668532176005409  0.2489565408954122  0.4925456136325838
  0.8847669597337189  0.2544624074301695  0.9953459612989718
  0.8779841911186052  0.7507546939765936  0.4957131388088079
  0.8835185189075431  0.7509901293082395  0.9946023066338160
 -0.0101073005480335 -0.0021731023234900  0.3678264295655202
 -0.0078140897239086  0.0027994949073642  0.8666170329426631
  0.9982731343914417  0.5038927353663621  0.3692866808294480
  1.0018810481017792  0.5029284542224581  0.8687760628976312
  0.5007783298621677 -0.0052793249128601  0.3681145202501026
  0.4980383467951809  0.0108053849325114  0.8707518406093140
  0.5099118624715501  0.5024053562886717  0.3698082973528186
  0.5054280876926415  0.4998556882819556  0.8637630987906542
 -0.0005767499495793  0.1271721560939585  0.4953246956969441
  0.0041820126354456  0.1226800566572115  0.9931652947411009
  0.9864644007169592  0.6283213062033988  0.4889304019936191
 -0.0036453889703313  0.6337062721813307  0.9879827174012432
  0.4971818718840768  0.1213491278425180  0.5015451422449243
  0.4953215052640047  0.1302457757081731  0.9890830733014897
  0.5009630202813458  0.6275630669906969  0.4885189875957068
  0.5011897295474542  0.6352507339491906  0.9972555702201166
  0.2437598821852920  0.2507614115768330  0.1347200616993933
  0.2508826397618770  0.2516600852178901  0.6267170175497550
  0.2507212580140216  0.7466930393641018  0.1227008626251327
  0.2507995554316439  0.7522192408327166  0.6302446538091607
  0.7444931226575467  0.2486167558079648  0.1289615484249043
  0.7519226085515298  0.2534607852005453  0.6336951897487432
  0.7521609927110622  0.7648334222848595  0.1273549859963081
  0.7474206973639648  0.7514993968466680  0.6352747048741980
  0.1241054028819498  1.0041138902353044  0.2603246749122931
  0.1194672268803877  0.9977698583080941  0.7573211417861793
  0.1175433389065477  0.4927422785708763  0.2535996016388695
  0.1266417794007426  0.5103910972062951  0.7564181214049823
  0.6185875463915461  0.0045405152173380  0.2514727125487805
  0.6206302103482978 -0.0000421610179178  0.7556919983187849
  0.6196146305860054  0.5026740525082549  0.2518604330267492
  0.6187701372357048  0.4932029938423975  0.7439878173256668
  0.1257889174539628  0.3701716210202398  0.3799228727259605
  0.1321166840586382  0.3787426324732549  0.8736711963047532
  0.1368294172824552  0.8764296999714922  0.3690768378391856
  0.1266375518619269  0.8848410384606650  0.8747724255463036
  0.6220457562325983  0.3682216332503960  0.3728536769927797
  0.6124400747667118  0.3760917005147498  0.8751596382707200
  0.6326055196393455  0.8828034283578116  0.3785068155797338
  0.6269351481920127  0.8712268914030807  0.8683930988573145
  0.2572653831783267 -0.0009510093547785  0.1267233487715502
  0.2591492835258372  0.9980534515423877  0.6244172810861220
  0.2466906115866989  0.4954528589132045  0.1252625691004073
  0.2564652315309479  0.5093820564701780  0.6214800451130068
  0.7325429179818619  1.0084620129903199  0.1174929738453903
  0.7642851676178513  0.9991899996758989  0.6330756390807762
  0.7580271210603305  0.5085849929187102  0.1229038355375460
  0.7537750130923089  0.4965218118618176  0.6213164337500493
  0.3669714420946742  0.1346090128041674  0.1240861867059379
  0.3730377553834565  0.1355095524147238  0.6263558899105056
  0.3717654473797619  0.6306886057607471  0.1307293681109465
  0.3831970614691498  0.6321896468158845  0.6165100504786478
  0.8732246279425800  0.1314507835986245  0.1198942580818028
  0.8651691072699531  0.1372751540162372  0.6173130102655564
  0.8658671536678514  0.6332927290411905  0.1161889721500881
  0.8665655913309006  0.6278823937198791  0.6182202421531859
  0.4906612833706325  0.2345958672728779  0.3815762319271172
  0.4980747448743159  0.2493133403730716  0.8707006055343015
  0.4982745895210978  0.7492746277913981  0.3692231486899897
  0.4918249947556632  0.7458694735416711  0.8762325632846764
  0.9957625307604149  0.2387961579519589  0.3681271017845713
  0.9993362987773875  0.2423800731584835  0.8726493856499319
  1.0000210255601989  0.7441205234892566  0.3726299075768290
  0.9997326129555827  0.7518714043841397  0.8615536532615951
  0.1239495719617619  0.2387101112210285  0.2499790207972590
  0.1353935023075141  0.2527811827656694  0.7452278889043198
  0.1354335272081306  0.7490382694356038  0.2459841294998139
  0.1275362990501037  0.7587136954112823  0.7434167347715698
  0.6214767112324481  0.2508202045808756  0.2496557197562130
  0.6244287321350411  0.2465111574035920  0.7492173413780021
  0.6282821352746084  0.7589660364690302  0.2392699708816923
  0.6268774093459674  0.7478812366782538  0.7527689377895551
  0.3743392202425121  0.0025341354399835  1.0058319020330171
  0.3722696562474216  1.0032208348881966  0.5109068639622583
  0.3651042315691678  0.5027926036912844  1.0092204380832011
  0.3698388413706237  0.5050205764609299  0.5024441745746815
  0.8644688969703072 -0.0032214845984819  1.0072111785123523
  0.8694777005140818 -0.0064746653854431  0.5098801304156579
  0.8749038585636062  0.5031457679896765  0.9939945193463378
  0.8712596422786218  0.4993370982974334  0.5111869838313663
  0.1272024568417837  0.2502324857253513  0.0044936736299937
  0.1238357870347836  0.2520299066989791  0.5061233558949428
  0.1224391623955890  0.7672878341962075  0.0001432496801614
  0.1158421244181951  0.7588256611907949  0.4975248722332890
  0.6137489907361391  0.2497558165864520  1.0062632935247346
  0.6286721504015018  0.2499496100148642  0.5104919168571801
  0.6186808890965071  0.7456339769043607  0.0049202662661811
  0.6319094405502299  0.7566328837649987  0.5095922267126054
  0.4951212553841605  1.0143397331361581  0.1300365536802009
  0.4977692774075230  0.9990658782520208  0.6325786281688378
  0.5039441512027137  0.4967466810797861  0.1326170553834263
  0.4993477725638938  0.4946579417945278  0.6278493653617173
  0.0086133005030692  1.0178406043367763  0.1335592909346442
  0.9950839385579798  1.0041819601509379  0.6310459401494914
 -0.0070331910426813  0.4852844057918362  0.1293673755910451
  0.0041947383365132  0.5013414257226765  0.6304777789489828
  0.2534239837604460  0.2397307907621760  0.3753026825547253
  0.2561480124170224  0.2452613647326079  0.8639537641659570
  0.2559149445752018  0.7481078457689013  0.3823866512182933
  0.2506499819052490  0.7534100497650752  0.8749040521530059
  0.7523059299634245  0.2528937376444036  0.3623514886701326
  0.7528134091133217  0.2600216907923132  0.8705848481029921
  0.7568913543046064  0.7606049200854280  0.3722640294332890
  0.7533224195874252  0.7439885614129248  0.8766065628210401
  0.3823533700425210  0.4880624669683785  0.2656076812996634
  0.3815823358400341  0.4979733746556383  0.7452944601293430
  0.3773175635585918  0.0053333356398341  0.2414775271329700
  0.3790894079474482 -0.0026523564483736  0.7521487783789766
  0.8778514922247904  0.4914120194903467  0.2448269284849016
  0.8831462404376819  0.4965352257443189  0.7385030170041986
  0.8813966269690461  0.0022401324399974  0.2480664914406650
  0.8806591622430998  0.9963144423774341  0.7417131495549325
  0.0068622138632179  0.1221276231160485  0.2538830244984841
  0.9992934820940034  0.1164425562389860  0.7528321212246573
  0.0012683711169434  0.6156937359976293  0.2476866744382021
  1.0093167022922387  0.6208092238424063  0.7577038949761565
  0.5055931987079986  0.1244967305954200  0.2582225619625838
  0.5033019404961258  0.1238060735326034  0.7536127992333229
  0.5092607758538343  0.6238267700828436  0.2513471123250625
  0.5079199834369366  0.6193002138531700  0.7526543114830829
  0.2491947969292284  0.3811471871661311  0.0035255199611022
  0.2590904763473983  0.3809109171969177  0.5047322461520080
  0.2500028255472287  0.8829030035154923  0.0049323639190609
  0.2508189615359124  0.8803317451057306  0.4988045627596882
  0.7496524252521551  0.3834882609026922  1.0004997269481692
  0.7571973495384487  0.3844083820950574  0.5006724437090853
  0.7478799786718040  0.8849840648383051  1.0009682785065985
  0.7550775548154454  0.8904048971475285  0.5027265170390223
  0.2634011941522726  0.1262038062605129  0.0000647897009137
  0.2501142214499259  0.1160991654263957  0.4966198040315234
  0.2518200295088972  0.6237104866237579  0.0111652937354557
  0.2584127144818245  0.6224116767868313  0.5019197744927357
  0.7487905713861073  0.1271063131093848  1.0003010354073887
  0.7472953815752102  0.1203517260551916  0.5027034445474144
  0.7547264054503026  0.6228876358455283 -0.0124174873196553
  0.7546735410581781  0.6231340714505332  0.4940123880839642
  0.0040156328565653  0.3774834482118627  0.2544431501357152
  1.0035873431367746  0.3818848169604193  0.7495338776369158
  1.0040829704706300  0.8877878478580646  0.2438731664940914
  0.9962458485196617  0.8780215331624529  0.7433190550065849
  0.5100428179058349  0.3823200149584998  0.2502971672590610
  0.5028786065839432  0.3759038702326500  0.7436252064903490
  0.5032140606550380  0.8855593636739059  0.2438357395841336
  0.4952705504332436  0.8796096516738864  0.7540250010133692
  0.3752298454827759  0.1224777772808883  0.3774737568859757
  0.3779629691095118  0.1283405917949240  0.8648420366318461
  0.3837430609512162  0.6323307855812641  0.3752065708902734
  0.3759536589736747  0.6254330432093976  0.8792809022607520
  0.8684330675418254  0.1259063448670703  0.3758860484277194
  0.8820742254472460  0.1263918411340457  0.8830770804846051
  0.8712354990914423  0.6291824973181235  0.3671582629699743
  0.8795076091296542  0.6313451848452557  0.8745699930905843
  0.1262128661562743  0.3578122688547942  0.1416939710895852
  0.1338830516097347  0.3715578380188885  0.6307822713561482
  0.1268363641051236  0.8716719346939066  0.1281340154165172
  0.1381998309391902  0.8780161144472660  0.6250183627739323
  0.6308030727506455  0.3749930802479290  0.1260271966532038
  0.6297164628789998  0.3762801927168005  0.6206778056347262
  0.6281558478545626  0.8786954169785385  0.1268922042282858
  0.6333701834941813  0.8721663436964460  0.6300096980745635
  0.3737544110381695  0.3724490116345676  0.1299944160067267
  0.3774224184741653  0.3679409624461979  0.6291572566940116
  0.3773498634336632  0.8730077353504987  0.1337048692312334
  0.3842933298638850  0.8670425289682568  0.6280990393974892
  0.8825363685693814  0.3594998595623540  0.1197331685300398
  0.8816069917055560  0.3665308777915162  0.6306183837957214
  0.8807542560309567  0.8955984164423373  0.1293563244676838
  0.8755279813829079  0.8714286762886929  0.6252841290459468
  0.1198724687390895  0.1226830891956436  0.3722081491825890
  0.1231685289735629  0.1225664710509019  0.8694043709594125
  0.1179863442559576  0.6256351175395543  0.3724909785728076
  0.1201915994988635  0.6219878331671990  0.8705951133386005
  0.6145501645973436  0.1211603487186837  0.3801184579801319
  0.6194354675083156  0.1268840463568716  0.8739159530788722
  0.6228232162404981  0.6316973743705048  0.3750195933916927
  0.6177123247441673  0.6183496917179465  0.8803808823513465
 
  0.85782880E-03  0.50242152E-02 -0.26835861E-02
  0.22249526E-02 -0.11612129E-01 -0.12959809E-01
  0.43133370E-02 -0.13034348E-02 -0.24414780E-02
 -0.81659574E-02 -0.32320444E-02  0.62271740E-02
 -0.29175860E-02  0.19177806E-02  0.39549986E-02
  0.35275105E-02  0.17347094E-02 -0.25716654E-02
 -0.27095754E-02 -0.58295339E-02  0.26393533E-02
 -0.29918988E-02 -0.52357877E-02 -0.48997684E-02
  0.55711751E-02  0.63143209E-02 -0.46399255E-02
  0.51963052E-02  0.95569681E-02 -0.19187310E-02
  0.40502631E-02 -0.52871210E-03  0.46274558E-02
 -0.80544955E-02 -0.37805302E-02  0.81608480E-02
  0.75351350E-03  0.92880166E-02  0.66921465E-02
  0.56726817E-02  0.15879621E-02  0.17243148E-03
 -0.49695839E-02 -0.58649865E-02  0.87270303E-02
  0.11466486E-02  0.33378372E-02  0.14590249E-02
  0.30471881E-02 -0.74568114E-02 -0.97025708E-02
 -0.20530192E-02 -0.75291992E-02 -0.24518100E-02
 -0.63113823E-02 -0.13083759E-02  0.12857068E-02
  0.10130761E-01  0.17267141E-02  0.58118334E-03
  0.59593610E-02 -0.20619905E-03 -0.99147955E-05
 -0.29242548E-03 -0.33190758E-02  0.43015547E-02
 -0.12365853E-02 -0.96075571E-03  0.74008211E-02
  0.22409951E-03 -0.25161729E-02  0.58533367E-02
 -0.41882864E-02  0.79376593E-02 -0.35725711E-02
  0.23099661E-03 -0.70974707E-02  0.14074318E-02
 -0.33061445E-03  0.26419993E-02 -0.35623357E-02
  0.11108922E-02  0.88433037E-02  0.59233638E-02
  0.29538413E-02 -0.85041430E-03  0.80562493E-02
  0.61291548E-02 -0.22120148E-02  0.22730833E-02
 -0.52334199E-02 -0.23543307E-02  0.20096023E-02
 -0.77661609E-02  0.37495245E-02  0.63227595E-02
  0.42326201E-02 -0.81361064E-02 -0.15893064E-02
  0.78784033E-03 -0.27342856E-02  0.21602564E-02
 -0.48968054E-02  0.17667781E-02 -0.22100586E-02
  0.38781605E-02  0.10845857E-02  0.41745237E-02
 -0.12051664E-03 -0.35548254E-03  0.28102151E-02
 -0.24548536E-02  0.10726747E-02  0.46919725E-02
 -0.27807170E-03  0.10484942E-01  0.22286372E-02
 -0.44664298E-02 -0.60278187E-02  0.64001959E-03
 -0.45923897E-02  0.63614475E-02  0.16957499E-02
 -0.31891559E-02  0.53903789E-02 -0.59517772E-02
 -0.45264813E-02 -0.24539227E-02  0.47916556E-02
  0.91695535E-02 -0.19159164E-02  0.14431620E-02
 -0.40723137E-02 -0.10127352E-02  0.58752433E-02
 -0.14307871E-01 -0.13614970E-02 -0.38294997E-02
  0.12426793E-01  0.37557611E-02 -0.39782833E-02
 -0.16607231E-02 -0.37731331E-02  0.46027145E-02
 -0.37060816E-02 -0.22022350E-02  0.31969551E-03
 -0.58432960E-02  0.20298373E-02 -0.64845335E-02
 -0.49073222E-02  0.63676708E-02  0.63951125E-02
 -0.65921034E-02  0.91341858E-03  0.30333824E-02
 -0.45365996E-02 -0.37352115E-02 -0.11823480E-02
  0.24653780E-02  0.45199476E-04 -0.33652900E-03
  0.30925196E-02  0.90358807E-02 -0.25141503E-03
 -0.41610030E-02  0.71518254E-02 -0.43157334E-03
  0.55647662E-02  0.16165809E-02 -0.79284725E-03
  0.28399559E-02  0.14146433E-02  0.47364318E-02
  0.95352735E-02  0.23496853E-02  0.49733751E-02
  0.63374626E-02  0.30628622E-02  0.72568623E-02
 -0.23913520E-02 -0.10600648E-02 -0.19485344E-02
 -0.18183301E-02 -0.64287707E-02 -0.11327392E-02
  0.62380772E-03 -0.42007057E-02  0.31676177E-02
  0.45564514E-03 -0.83501037E-03  0.45138772E-02
 -0.62709840E-04  0.18377248E-02  0.53430197E-02
 -0.19538086E-02  0.37683482E-02  0.15445989E-02
  0.36745539E-02 -0.32824141E-02 -0.31927432E-02
  0.29891220E-02 -0.35859225E-02  0.60996946E-02