Li17 Sc5 Cl32
1.0
10.403700 0.000000 0.000000
0.000000 10.403700 0.000000
0.000000 0.000000 10.403700
Li Sc Cl
17 5 32
direct
0.375000 0.375000 0.875000 Li+
0.750000 0.750000 0.000000 Li+
0.000000 0.500000 0.500000 Li+
0.000000 0.750000 0.750000 Li+
0.500000 0.000000 0.500000 Li+
0.125000 0.125000 0.886000 Li+
0.500000 0.750000 0.750000 Li+
0.250000 0.500000 0.250000 Li+
0.750000 0.500000 0.750000 Li+
0.000000 0.250000 0.750000 Li+
0.250000 0.250000 0.500000 Li+
0.500000 0.000000 0.000000 Li+
0.000000 0.750000 0.250000 Li+
0.750000 0.750000 0.500000 Li+
0.250000 0.000000 0.750000 Li+
0.750000 0.000000 0.250000 Li+
0.000000 0.500000 0.000000 Li+
0.500000 0.500000 0.500000 Sc3+
0.250000 0.750000 0.000000 Sc3+
0.750000 0.250000 0.000000 Sc3+
0.500000 0.250000 0.250000 Sc3+
0.000000 0.000000 0.500000 Sc3+
0.254350 0.254350 0.254350 Cl-
0.745650 0.504350 0.504350 Cl-
0.495650 0.995650 0.754350 Cl-
0.004350 0.745650 0.004350 Cl-
0.254350 0.995650 0.995650 Cl-
0.745650 0.745650 0.745650 Cl-
0.495650 0.254350 0.495650 Cl-
0.004350 0.504350 0.245650 Cl-
0.504350 0.745650 0.504350 Cl-
0.754350 0.495650 0.995650 Cl-
0.004350 0.004350 0.745650 Cl-
0.995650 0.254350 0.995650 Cl-
0.495650 0.495650 0.254350 Cl-
0.245650 0.004350 0.504350 Cl-
0.254350 0.754350 0.754350 Cl-
0.504350 0.004350 0.245650 Cl-
0.745650 0.245650 0.245650 Cl-
0.995650 0.495650 0.754350 Cl-
0.254350 0.495650 0.495650 Cl-
0.745650 0.004350 0.004350 Cl-
0.245650 0.504350 0.004350 Cl-
0.995650 0.995650 0.254350 Cl-
0.504350 0.504350 0.745650 Cl-
0.754350 0.995650 0.495650 Cl-
0.004350 0.245650 0.504350 Cl-
0.495650 0.754350 0.995650 Cl-
0.504350 0.245650 0.004350 Cl-
0.995650 0.754350 0.495650 Cl-
0.754350 0.254350 0.754350 Cl-
0.245650 0.745650 0.245650 Cl-
0.754350 0.754350 0.254350 Cl-
0.245650 0.245650 0.745650 Cl-
