# Compound: Li17Sc5Cl32. Old comment: Cl
   1.0000000000000000     
    10.2448458739859429    0.0087588133785743   -0.0304843911025021
     0.0088409440927731   10.3632349059634592   -0.0956895965903085
    -0.0301940427481568   -0.0955236740443635   10.3540972023689744
   Li   Sc   Cl
    17     5    32
Direct
  0.3832587992568466  0.3829631984281541  0.8720325999939329
  0.2397035309504756  0.0141622585960896  0.2563177913230485
  0.7497019842876769  0.7495320459762622  0.9939398171505932
  0.9945818356034662  0.7498934827419058  0.7289697054811698
  0.4944408347880447  0.9942457547248176  0.5166460538796824
  0.0826330925125153  0.3723001060053178  0.3722368029306257
  0.5054516028399365  0.7607301931299251  0.7490982323205895
  0.2609859152537244  0.5169086382685441  0.2394060483328748
  0.7498000242931154  0.5054512833277603  0.7390399693023881
  0.2725904499149089  0.2386853843173000  0.5052189340897065
  0.4938651711424910  0.9952033593186055  0.9829901356554356
  0.4829718898341533  0.2603061753257059  0.2605671866469484
  0.0048919569265738  0.7396015371028274  0.2723954752686347
  0.7502187172044925  0.7389545911225268  0.5165096913009788
  0.2605447464669755  0.9944416221306850  0.7389282826692162
  0.0052429203635185  0.5052260241004642  0.0048978760214818
  0.0162744146784257  0.9834120800610479  0.5055153281009045
  0.5037502529545950  0.4991237354357934  0.4932114384282496
  0.2497101545771618  0.7569661171029599  0.9948635094212965
  0.0047255596688176  0.2491088770505359  0.7499818606333453
  0.7496541531609219  0.2606234406696467  0.0055593231873160
  0.7498111616590635  0.9947313193446747  0.2605640272960388
  0.2446516997158774  0.2476283852287284  0.2636272390204847
  0.7409816643199045  0.5009299668551542  0.5030441753960589
  0.4923257561732313  0.9914893678866459  0.7490052925878166
  0.0053280625546743  0.7452218300626681  0.9880508236186740
  0.2522132271910719  0.9935682574210351  0.0041718787238090
  0.7527852681589962  0.7394452598910926  0.7606406426225164
  0.5051988046394874  0.2581761006855186  0.4975074858829143
  0.0135459938499938  0.5161034222216621  0.2319592590660854
  0.5057600134902357  0.7385682583353986  0.5058180390708487
  0.7522243420448216  0.4919443136279836  0.9979756596162520
  0.0104564421644637  0.0107392084026782  0.7454096373215704
  0.9933538779197388  0.2513076893897463  0.9939637028258715
  0.4963931847039668  0.4928033741114144  0.2581213507186279
  0.2571643627136347  0.0055626021285488  0.4963498246634494
  0.2422181663756728  0.7550425730399983  0.7576261311506005
  0.5074505147141265  0.0127515987073281  0.2495687415836625
  0.7549623067381571  0.2416764534487219  0.2433250968681246
  0.9941967229777550  0.4845435843309486  0.7568080009832823
  0.2578634645734199  0.4878735724212936  0.4905250322088618
  0.7453388433479020  0.0112092305370519  0.0114466489448763
  0.2504642370266254  0.5146029247327930  0.0008330952652423
  0.9892059160992589  0.9922486723728925  0.2631720780423352
  0.5059673259887306  0.5078024411919521  0.7369919336240731
  0.7380574451394127  0.9913972430629540  0.4918394617102724
  0.9928241920648812  0.2334600731704524  0.5158452948172927
  0.4915431334955933  0.7562853415507297  0.9894491802396683
  0.5097649433544116  0.2452486419550554  0.0063103739020421
  0.9835969181037012  0.7561964964145779  0.5028090143036296
  0.7576703970685702  0.2446544614739676  0.7659964252866265
  0.2456059174096304  0.7614429394912888  0.2331498816282813
  0.7506360612865713  0.7627944036671876  0.2301857861758888
  0.2444416062575703  0.2447100679009814  0.7495827326958066

  0.00000000E+00  0.00000000E+00  0.00000000E+00
  0.00000000E+00  0.00000000E+00  0.00000000E+00
  0.00000000E+00  0.00000000E+00  0.00000000E+00
  0.00000000E+00  0.00000000E+00  0.00000000E+00
  0.00000000E+00  0.00000000E+00  0.00000000E+00
  0.00000000E+00  0.00000000E+00  0.00000000E+00
  0.00000000E+00  0.00000000E+00  0.00000000E+00
  0.00000000E+00  0.00000000E+00  0.00000000E+00
  0.00000000E+00  0.00000000E+00  0.00000000E+00
  0.00000000E+00  0.00000000E+00  0.00000000E+00
  0.00000000E+00  0.00000000E+00  0.00000000E+00
  0.00000000E+00  0.00000000E+00  0.00000000E+00
  0.00000000E+00  0.00000000E+00  0.00000000E+00
  0.00000000E+00  0.00000000E+00  0.00000000E+00
  0.00000000E+00  0.00000000E+00  0.00000000E+00
  0.00000000E+00  0.00000000E+00  0.00000000E+00
  0.00000000E+00  0.00000000E+00  0.00000000E+00
  0.00000000E+00  0.00000000E+00  0.00000000E+00
  0.00000000E+00  0.00000000E+00  0.00000000E+00
  0.00000000E+00  0.00000000E+00  0.00000000E+00
  0.00000000E+00  0.00000000E+00  0.00000000E+00
  0.00000000E+00  0.00000000E+00  0.00000000E+00
  0.00000000E+00  0.00000000E+00  0.00000000E+00
  0.00000000E+00  0.00000000E+00  0.00000000E+00
  0.00000000E+00  0.00000000E+00  0.00000000E+00
  0.00000000E+00  0.00000000E+00  0.00000000E+00
  0.00000000E+00  0.00000000E+00  0.00000000E+00
  0.00000000E+00  0.00000000E+00  0.00000000E+00
  0.00000000E+00  0.00000000E+00  0.00000000E+00
  0.00000000E+00  0.00000000E+00  0.00000000E+00
  0.00000000E+00  0.00000000E+00  0.00000000E+00
  0.00000000E+00  0.00000000E+00  0.00000000E+00
  0.00000000E+00  0.00000000E+00  0.00000000E+00
  0.00000000E+00  0.00000000E+00  0.00000000E+00
  0.00000000E+00  0.00000000E+00  0.00000000E+00
  0.00000000E+00  0.00000000E+00  0.00000000E+00
  0.00000000E+00  0.00000000E+00  0.00000000E+00
  0.00000000E+00  0.00000000E+00  0.00000000E+00
  0.00000000E+00  0.00000000E+00  0.00000000E+00
  0.00000000E+00  0.00000000E+00  0.00000000E+00
  0.00000000E+00  0.00000000E+00  0.00000000E+00
  0.00000000E+00  0.00000000E+00  0.00000000E+00
  0.00000000E+00  0.00000000E+00  0.00000000E+00
  0.00000000E+00  0.00000000E+00  0.00000000E+00
  0.00000000E+00  0.00000000E+00  0.00000000E+00
  0.00000000E+00  0.00000000E+00  0.00000000E+00
  0.00000000E+00  0.00000000E+00  0.00000000E+00
  0.00000000E+00  0.00000000E+00  0.00000000E+00
  0.00000000E+00  0.00000000E+00  0.00000000E+00
  0.00000000E+00  0.00000000E+00  0.00000000E+00
  0.00000000E+00  0.00000000E+00  0.00000000E+00
  0.00000000E+00  0.00000000E+00  0.00000000E+00
  0.00000000E+00  0.00000000E+00  0.00000000E+00
  0.00000000E+00  0.00000000E+00  0.00000000E+00
