opti conp comp defe
cell
7.453 7.453 7.453 51.648 51.648 51.648
fractional
Sc core 0.3339 0.3339 0.3339
Sc core 0.6661 0.6661 0.6661
Cl core 0.0737 0.4439 0.7053
Cl core 0.2947 0.9263 0.5561
Cl core 0.4439 0.7053 0.0737
Cl core 0.5561 0.2947 0.9263
Cl core 0.7053 0.0737 0.4439
Cl core 0.9263 0.5561 0.2947
Cl shel 0.0737 0.4439 0.7053
Cl shel 0.2947 0.9263 0.5561
Cl shel 0.4439 0.7053 0.0737
Cl shel 0.5561 0.2947 0.9263
Cl shel 0.7053 0.0737 0.4439
Cl shel 0.9263 0.5561 0.2947
space
1
