ADDGRID = True
ALGO = Normal
EDIFF = 1e-06
EDIFFG = -0.01
ENCUT = 650
GGA = Ps
IBRION = 2
ISIF = 3
ISMEAR = 0
ISPIN = 1
ISYM = 0
LASPH = True
LMAXMIX = 4
LREAL = Auto
LWAVE = False
NELM = 200
NPAR = 6
NSW = 200
PREC = Accurate
SIGMA = 0.05
