# Compound: Li17Sc5Cl32. Old comment: Cl
   1.0000000000000000     
    10.3474222995619236   -0.0059138659729476   -0.0817934095299861
    -0.0058517182174613   10.2007085463359726   -0.0100428092817920
    -0.0808818335768771   -0.0099311090442068   10.4361233470456991
   Li   Sc   Cl
    17     5    32
Direct
  0.3727367839294237  0.3719570580296344  0.8728186712075001
  0.7716899179044294  0.7507998729766737  0.0059487757193804
  0.2610279174902321  0.7490406901928660  0.5153172220736141
  0.7496644237726657  0.4940029873122582  0.2505701581419221
  0.5059137843690220  0.0062939553494213  0.5056623067696667
  0.1273193808974556  0.9128285434661599  0.1304247479261058
  0.4946380355191421  0.4935063921018419  0.4947572365706880
  0.4945535579758075  0.7606462525407314  0.7398803010078038
  0.2608322699748352  0.7384652112654554  0.9617953630656303
  0.2611307362706995  0.2505346293173358  0.4941002523332989
  0.7504070603972410  0.2499694457384556  0.0164323537619865
  0.5052902305654420  0.2503813047414546  0.2614814135042040
  0.9836571453009996  0.7270560287333114  0.2608397919673126
  0.7382525903065670  0.7498661964353004  0.4832845841650141
  0.2608715795363868  0.9840241757463405  0.7500557614024433
  0.7488919933363049  0.0171876426585958  0.2501946967813933
  0.0054411411162073  0.5055538301523016  0.0056756051401555
  0.2498862550802342  0.4946649747439010  0.2506440456979841
  0.7477844810246781  0.5061570061303790  0.7440840294377330
 -0.0039121436887374  0.2491648259699003  0.7562691243535498
  0.5060037373972339  0.9948785245844324  0.0048009424970761
  0.9929603222084639  0.9949195224734537  0.5005609202834582
  0.2520237328998036  0.2595234509646345  0.2546077355130313
  0.7392455946998955  0.5079663061875574  0.5095398219345580
  0.4991326989391415  0.0029110210776439  0.7640815624418426
  0.0095679451099266  0.7521070931792072  0.0160055678894492
  0.2651878144662031  0.9937017850309995  0.9864786247562040
  0.7497799200028070  0.7418716664321610  0.7547412633983124
  0.4881864168713289  0.2406902987124207  0.4938202263034835
  0.0087254641804192  0.4929515424146965  0.2429724646285602
  0.4999169977788220  0.7650477814755415  0.5099937106631739
  0.7600304123305405  0.5033191270777785  0.9861838170610012
 -0.0056542923026112  0.0053717358377751  0.7416789437824524
  0.9942864145887946  0.2513977208390141  0.9853920789854816
  0.4882834736364679  0.5004782646879375  0.2560465056545383
  0.2348536052176033 -0.0008911600063717  0.5088926316518956
  0.2589513193321957  0.7514675083809894  0.7422393261605443
  0.5048807139918282  0.0033147255069893  0.2396886127216407
  0.7394539973988952  0.2610296483109679  0.2410747748422337
  0.9909499383741001  0.4932624514951392  0.7470619205140719
  0.2545936218235365  0.5023843441508692  0.4881440407538464
  0.7440300796200299 -0.0019542731488652  0.0106143239546738
  0.2465948063795863  0.5054391397962303  0.0091677991841300
  0.9875423650043172  0.0088605954545444  0.2668284318347912
  0.5101591938907872  0.5018436629362478  0.7437084734762501
  0.7554600209501028  0.9915414298238736  0.4904455381464329
 -0.0024300058283899  0.2402353352554909  0.5139847591064332
  0.5046064768602961  0.7563353101984558  0.9901113770314368
  0.5066789950212497  0.2396439756947580  0.0028083196828448
 -0.0011729229495971  0.7576053251910040  0.4996520135097210
  0.7554031675276363  0.2598286606500504  0.7527366031839663
  0.2353956361328172  0.7432760943940769  0.2562756193378418
  0.7561816829748169  0.7336939321214737  0.2461012025827417
  0.2341135443919210  0.2448463992165036  0.7433236355045117

  0.00000000E+00  0.00000000E+00  0.00000000E+00
  0.00000000E+00  0.00000000E+00  0.00000000E+00
  0.00000000E+00  0.00000000E+00  0.00000000E+00
  0.00000000E+00  0.00000000E+00  0.00000000E+00
  0.00000000E+00  0.00000000E+00  0.00000000E+00
  0.00000000E+00  0.00000000E+00  0.00000000E+00
  0.00000000E+00  0.00000000E+00  0.00000000E+00
  0.00000000E+00  0.00000000E+00  0.00000000E+00
  0.00000000E+00  0.00000000E+00  0.00000000E+00
  0.00000000E+00  0.00000000E+00  0.00000000E+00
  0.00000000E+00  0.00000000E+00  0.00000000E+00
  0.00000000E+00  0.00000000E+00  0.00000000E+00
  0.00000000E+00  0.00000000E+00  0.00000000E+00
  0.00000000E+00  0.00000000E+00  0.00000000E+00
  0.00000000E+00  0.00000000E+00  0.00000000E+00
  0.00000000E+00  0.00000000E+00  0.00000000E+00
  0.00000000E+00  0.00000000E+00  0.00000000E+00
  0.00000000E+00  0.00000000E+00  0.00000000E+00
  0.00000000E+00  0.00000000E+00  0.00000000E+00
  0.00000000E+00  0.00000000E+00  0.00000000E+00
  0.00000000E+00  0.00000000E+00  0.00000000E+00
  0.00000000E+00  0.00000000E+00  0.00000000E+00
  0.00000000E+00  0.00000000E+00  0.00000000E+00
  0.00000000E+00  0.00000000E+00  0.00000000E+00
  0.00000000E+00  0.00000000E+00  0.00000000E+00
  0.00000000E+00  0.00000000E+00  0.00000000E+00
  0.00000000E+00  0.00000000E+00  0.00000000E+00
  0.00000000E+00  0.00000000E+00  0.00000000E+00
  0.00000000E+00  0.00000000E+00  0.00000000E+00
  0.00000000E+00  0.00000000E+00  0.00000000E+00
  0.00000000E+00  0.00000000E+00  0.00000000E+00
  0.00000000E+00  0.00000000E+00  0.00000000E+00
  0.00000000E+00  0.00000000E+00  0.00000000E+00
  0.00000000E+00  0.00000000E+00  0.00000000E+00
  0.00000000E+00  0.00000000E+00  0.00000000E+00
  0.00000000E+00  0.00000000E+00  0.00000000E+00
  0.00000000E+00  0.00000000E+00  0.00000000E+00
  0.00000000E+00  0.00000000E+00  0.00000000E+00
  0.00000000E+00  0.00000000E+00  0.00000000E+00
  0.00000000E+00  0.00000000E+00  0.00000000E+00
  0.00000000E+00  0.00000000E+00  0.00000000E+00
  0.00000000E+00  0.00000000E+00  0.00000000E+00
  0.00000000E+00  0.00000000E+00  0.00000000E+00
  0.00000000E+00  0.00000000E+00  0.00000000E+00
  0.00000000E+00  0.00000000E+00  0.00000000E+00
  0.00000000E+00  0.00000000E+00  0.00000000E+00
  0.00000000E+00  0.00000000E+00  0.00000000E+00
  0.00000000E+00  0.00000000E+00  0.00000000E+00
  0.00000000E+00  0.00000000E+00  0.00000000E+00
  0.00000000E+00  0.00000000E+00  0.00000000E+00
  0.00000000E+00  0.00000000E+00  0.00000000E+00
  0.00000000E+00  0.00000000E+00  0.00000000E+00
  0.00000000E+00  0.00000000E+00  0.00000000E+00
  0.00000000E+00  0.00000000E+00  0.00000000E+00
