ADDGRID = .TRUE.
ALGO = Normal
EDIFF = 1e-06
EDIFFG = -0.01
ENCUT = 650
GGA = PS
IBRION = 2
ISIF = 3
ISMEAR = 0
ISPIN = 1
ISYM = 0
KPAR = 2
LASPH = .TRUE.
LDAU = .FALSE.
LORBIT = 11
LREAL = .TRUE.
LWAVE = .FALSE.
MAGMOM = 0.6 0.6 0.6 0.6 0.6 0.6 0.6 0.6 0.6 0.6 0.6 0.6 0.6 0.6 0.6 0.6 0.6 5 5 5 5 5 0.6 0.6 0.6 0.6 0.6 0.6 0.6 0.6 0.6 0.6 0.6 0.6 0.6 0.6 0.6 0.6 0.6 0.6 0.6 0.6 0.6 0.6 0.6 0.6 0.6 0.6 0.6 0.6 0.6 0.6 0.6 0.6
NCORE = 32
NELM = 200
NSW = 400
PREC = Accurate
SIGMA = 0.05
