
1.0
        6.3979997635         0.0000000000         0.0000000000
        0.0000000000        11.0399999619         0.0000000000
       -2.1743167033         0.0000000000         6.0097608306
   Cl   Li   Sc
   12    6    2
Direct
     0.757900000         0.000000000         0.231299996
     0.242100000         0.000000000         0.768700004
     0.257900000         0.500000000         0.231299996
     0.742100000         0.500000000         0.768700004
     0.238700002         0.839100003         0.237100005
     0.761300027         0.839100003         0.762899995
     0.761300027         0.160899997         0.762899995
     0.238700002         0.160899997         0.237100005
     0.738699973         0.339100003         0.237100005
     0.261299998         0.339100003         0.762899995
     0.261299998         0.660899997         0.762899995
     0.738699973         0.660899997         0.237100005
     0.500000000         0.834699988         0.000000000
     0.500000000         0.165299997         0.000000000
     0.000000000         0.334699988         0.000000000
     0.000000000         0.665300012         0.000000000
     0.500000000         0.331000000         0.500000000
     0.500000000         0.000000000         0.500000000
     0.000000000         0.000000000         0.000000000
     0.500000000         0.500000000         0.000000000
