Li17 Sc5 Cl32
1.0
10.327154 0.027201 0.032126
0.028114 10.227335 0.009817
0.031410 0.008613 10.310064
Li Sc Cl
17 5 32
direct
0.371878 0.372392 0.872627 Li
0.238989 0.760211 0.505682 Li
0.994162 0.750710 0.739671 Li
0.749588 0.505455 0.250557 Li
0.494462 0.006032 0.506636 Li
0.228464 0.016329 0.260560 Li
0.506021 0.749493 0.760742 Li
0.250078 0.750622 0.005418 Li
0.249874 0.504830 0.250847 Li
0.749345 0.505945 0.749830 Li
0.241544 0.256979 0.492712 Li
0.749709 0.250256 0.995323 Li
0.483571 0.261024 0.250428 Li
0.005178 0.750420 0.261600 Li
0.760989 0.750032 0.506746 Li
0.249588 0.994149 0.750397 Li
0.994543 0.005015 0.506146 Li
0.495095 0.504269 0.495374 Sc
0.994375 0.239451 0.749746 Sc
0.494417 0.994264 0.994249 Sc
0.755358 0.004286 0.252720 Sc
0.995099 0.505119 0.006242 Sc
0.255122 0.252084 0.261480 Cl
0.734429 0.505772 0.491270 Cl
0.495801 -0.001433 0.758598 Cl
0.002804 0.740519 0.995512 Cl
0.260443 0.001630 0.011034 Cl
0.753224 0.737599 0.739540 Cl
0.490580 0.262302 0.498493 Cl
0.993142 0.504354 0.242926 Cl
0.494167 0.748670 0.508283 Cl
0.758404 0.495260 0.006696 Cl
0.001591 0.003896 0.754878 Cl
-0.000548 0.258253 0.994924 Cl
0.500928 0.501899 0.256564 Cl
0.256796 0.003190 0.500650 Cl
0.244763 0.761209 0.753796 Cl
0.506372 0.000630 0.245312 Cl
0.739301 0.242596 0.242287 Cl
0.001254 0.492006 0.761622 Cl
0.257745 0.507840 0.494958 Cl
0.739176 -0.001294 0.010510 Cl
0.238096 0.504105 0.010884 Cl
0.989428 0.004876 0.258984 Cl
0.504982 0.504572 0.739518 Cl
0.734239 0.000795 0.489228 Cl
0.001759 0.245844 0.516733 Cl
0.493535 0.759722 0.998341 Cl
0.505951 0.239518 0.005574 Cl
0.000331 0.766267 0.505022 Cl
0.761371 0.259936 0.760677 Cl
0.234807 0.757404 0.253865 Cl
0.760167 0.762103 0.259416 Cl
0.237513 0.240596 0.747175 Cl
