# Compound: Li17Sc5Cl32. Old comment: Cl
   1.0000000000000000     
    10.3441345731985717    0.0359741815622848   -0.0185438142241568
     0.0357871865146430   10.3604163203052266    0.0466946953186282
    -0.0187657415639338    0.0470968733929229   10.2673766938823210
   Li   Sc   Cl
    17     5    32
Direct
  0.3720050502357193  0.3832845372954844  0.8832838933380680
  0.2608071158280487  0.0056073264869892  0.2384990067639591
  0.7511931265007500  0.7505453818810506  0.0057785736823453
  0.0057700151988522  0.7390228569978012  0.7605540475519502
  0.5058231871607367  0.0153051134894288  0.4947772459136832
  0.6267370001206738  0.6268551814823456  0.3208976471154425
  0.4947841839648938  0.4615970954021546  0.5054496098439150
  0.2390124324139217  0.7607484699458917  0.0059822211860710
  0.7452033773865543  0.5020746550427986  0.7306600408080137
  0.2611399438733548  0.2503721912092395  0.4943868341838515
  0.4945348341897707  0.9950110982958899  0.0057846174706043
  0.5051549259178608  0.2396688870024822  0.2610721008630293
  0.0051497683831305  0.7394535133518508  0.2385439818169452
  0.7611318369104266  0.7506461627806935  0.5161819660266459
  0.2606908719688880  0.9955814242323373  0.7719378946789596
  0.7390375537719291  0.0055270219691360  0.2493402718006516
 -0.0052701814109712  0.5057849199520763  0.0059882780897768
  0.4946548626273148  0.7506873174079668  0.7496778549930169
  0.2388021443870600  0.4948291442867684  0.2604129063294107
  0.0012182215062657  0.2593740065253726  0.7491774593980937
  0.7493774755422644  0.2499320089217995  0.0057519392334825
  0.9998630667444240  0.9973279314583209  0.4940777720248739
  0.2481985742947136  0.2562587052553790  0.2521115081531965
  0.7261357841949914  0.5217874488525637  0.4960923186853612
  0.4950800254676439  0.9883802214810894  0.7466894112983146
  0.9939476657559907  0.7427338583603921  0.9896916907161527
  0.2621361688918744  0.9900921034931041  0.0044659158468777
  0.7420054507466336  0.7444215415275202  0.7562839035256298
  0.4916412302862199  0.2392282187430717  0.4981262217761988
  0.0050975880962431  0.5048209396458785  0.2482435178879496
  0.5103957513943400  0.7660008540549028  0.5090086911575943
  0.7550941331766311  0.4887137552081843  0.9893972523477871
  0.0063340517774138  0.0121810880536512  0.7433633746641851
  0.9931060353066948  0.2493013566095337  0.9903469580701654
  0.4809986646622473  0.4831338961645031  0.2489401650492547
  0.2404641547441221  0.0083794747693711  0.5009676961664425
  0.2568184415276015  0.7554864163840954  0.7575623533348057
  0.4987560590423142  0.0062495275521146  0.2537371864438535
  0.7495429065904750  0.2464295153443435  0.2382698496481405
  0.9936190860110051  0.4933065436437793  0.7485905643916194
  0.2551043248376032  0.4898972494965690  0.4947841771189998
  0.7442750205866752  0.0121579001664755  0.0014262427519739
  0.2377769370669429  0.5089619329153312  0.0116569059275202
  0.0114550428312056  0.9927199995686227  0.2604236816020817
  0.5001510690014038  0.5111200662487532  0.7439072888498268
  0.7633144204387351  0.9978596411666018  0.4937695783560938
 -0.0008588425568749  0.2424739702814182  0.5090755541092825
  0.5102404136633795  0.7541207498660251  0.9885625579413500
  0.5111755706461546  0.2442845413007239 -0.0010011213765029
  0.9991554663748038  0.7632917895778580  0.5209594556947849
  0.7611710451920276  0.2541685863823426  0.7554850167374392
  0.2436282296615249  0.7362482980105428  0.2473429139075599
  0.7686935720588635  0.7696809350825725  0.2424537959684323
  0.2385251350085421  0.2468726393748003  0.7500492301348238

  0.00000000E+00  0.00000000E+00  0.00000000E+00
  0.00000000E+00  0.00000000E+00  0.00000000E+00
  0.00000000E+00  0.00000000E+00  0.00000000E+00
  0.00000000E+00  0.00000000E+00  0.00000000E+00
  0.00000000E+00  0.00000000E+00  0.00000000E+00
  0.00000000E+00  0.00000000E+00  0.00000000E+00
  0.00000000E+00  0.00000000E+00  0.00000000E+00
  0.00000000E+00  0.00000000E+00  0.00000000E+00
  0.00000000E+00  0.00000000E+00  0.00000000E+00
  0.00000000E+00  0.00000000E+00  0.00000000E+00
  0.00000000E+00  0.00000000E+00  0.00000000E+00
  0.00000000E+00  0.00000000E+00  0.00000000E+00
  0.00000000E+00  0.00000000E+00  0.00000000E+00
  0.00000000E+00  0.00000000E+00  0.00000000E+00
  0.00000000E+00  0.00000000E+00  0.00000000E+00
  0.00000000E+00  0.00000000E+00  0.00000000E+00
  0.00000000E+00  0.00000000E+00  0.00000000E+00
  0.00000000E+00  0.00000000E+00  0.00000000E+00
  0.00000000E+00  0.00000000E+00  0.00000000E+00
  0.00000000E+00  0.00000000E+00  0.00000000E+00
  0.00000000E+00  0.00000000E+00  0.00000000E+00
  0.00000000E+00  0.00000000E+00  0.00000000E+00
  0.00000000E+00  0.00000000E+00  0.00000000E+00
  0.00000000E+00  0.00000000E+00  0.00000000E+00
  0.00000000E+00  0.00000000E+00  0.00000000E+00
  0.00000000E+00  0.00000000E+00  0.00000000E+00
  0.00000000E+00  0.00000000E+00  0.00000000E+00
  0.00000000E+00  0.00000000E+00  0.00000000E+00
  0.00000000E+00  0.00000000E+00  0.00000000E+00
  0.00000000E+00  0.00000000E+00  0.00000000E+00
  0.00000000E+00  0.00000000E+00  0.00000000E+00
  0.00000000E+00  0.00000000E+00  0.00000000E+00
  0.00000000E+00  0.00000000E+00  0.00000000E+00
  0.00000000E+00  0.00000000E+00  0.00000000E+00
  0.00000000E+00  0.00000000E+00  0.00000000E+00
  0.00000000E+00  0.00000000E+00  0.00000000E+00
  0.00000000E+00  0.00000000E+00  0.00000000E+00
  0.00000000E+00  0.00000000E+00  0.00000000E+00
  0.00000000E+00  0.00000000E+00  0.00000000E+00
  0.00000000E+00  0.00000000E+00  0.00000000E+00
  0.00000000E+00  0.00000000E+00  0.00000000E+00
  0.00000000E+00  0.00000000E+00  0.00000000E+00
  0.00000000E+00  0.00000000E+00  0.00000000E+00
  0.00000000E+00  0.00000000E+00  0.00000000E+00
  0.00000000E+00  0.00000000E+00  0.00000000E+00
  0.00000000E+00  0.00000000E+00  0.00000000E+00
  0.00000000E+00  0.00000000E+00  0.00000000E+00
  0.00000000E+00  0.00000000E+00  0.00000000E+00
  0.00000000E+00  0.00000000E+00  0.00000000E+00
  0.00000000E+00  0.00000000E+00  0.00000000E+00
  0.00000000E+00  0.00000000E+00  0.00000000E+00
  0.00000000E+00  0.00000000E+00  0.00000000E+00
  0.00000000E+00  0.00000000E+00  0.00000000E+00
  0.00000000E+00  0.00000000E+00  0.00000000E+00
