# Compound: Li17Sc5Cl32. Old comment: Cl
   1.0000000000000000     
    10.3271544695860857    0.0272014417837599    0.0321260380459098
     0.0281143525855717   10.2273346124467714    0.0098168416042176
     0.0314100376102969    0.0086134568876569   10.3100637116956264
   Li   Sc   Cl
    17     5    32
Direct
  0.3718781426940487  0.3723920184161520  0.8726270222143350
  0.2389886310466539  0.7602114300030373  0.5056815969030146
  0.9941616831644207  0.7507095843661047  0.7396710641544831
  0.7495881188335403  0.5054554580756992  0.2505568702478413
  0.4944616423628050  0.0060315990528407  0.5066364149681433
  0.2284642538050034  0.0163289008916731  0.2605595499455173
  0.5060210715696412  0.7494931944751337  0.7607419171172747
  0.2500775345053594  0.7506218393796716  0.0054177858344654
  0.2498744155416271  0.5048296843424332  0.2508465529880533
  0.7493447746243364  0.5059446117541700  0.7498304716820045
  0.2415444186539625  0.2569788375833303  0.4927119964433070
  0.7497093336525108  0.2502558847187362  0.9953230835514613
  0.4835708452021363  0.2610241585267243  0.2504280103984617
  0.0051777470121869  0.7504203657107765  0.2615997133493803
  0.7609894009436061  0.7500320887285628  0.5067457534428826
  0.2495875369642971  0.9941486434695870  0.7503973933752470
  0.9945431917301407  0.0050154280788343  0.5061461185459626
  0.4950951786617839  0.5042690297605220  0.4953741931592895
  0.9943746941812162  0.2394507399236869  0.7497456482453877
  0.4944174328088511  0.9942639458696166  0.9942491185534333
  0.7553581413906348  0.0042855784770693  0.2527204774974351
  0.9950985208111073  0.5051186435695632  0.0062420209635895
  0.2551221328707369  0.2520844538069214  0.2614799528313125
  0.7344293818544886  0.5057722848540307  0.4912701133818063
  0.4958013737193954 -0.0014333451555197  0.7585976285250099
  0.0028044347576018  0.7405190153588426  0.9955118723720393
  0.2604431187153103  0.0016300406479538  0.0110339089166964
  0.7532236481297425  0.7375990602696196  0.7395399770280396
  0.4905798694173117  0.2623016113215097  0.4984931470792470
  0.9931421654241041  0.5043538421110210  0.2429257387167637
  0.4941674526929502  0.7486695151650640  0.5082826733346104
  0.7584035487266065  0.4952596117597565  0.0066958009057219
  0.0015908401659404  0.0038960153986732  0.7548780281005061
 -0.0005477475930211  0.2582530613415960  0.9949240596091735
  0.5009283782534143  0.5018991665174378  0.2565641301676878
  0.2567956722794751  0.0031904811556670  0.5006496295448387
  0.2447630519771216  0.7612085975151708  0.7537956703639339
  0.5063717463609768  0.0006298367625523  0.2453122509461807
  0.7393013956163214  0.2425958970815358  0.2422875006980273
  0.0012541316388477  0.4920059693286929  0.7616217209600845
  0.2577447925949394  0.5078404528924630  0.4949577961814862
  0.7391758647945759 -0.0012939826131814  0.0105097935487037
  0.2380963613249014  0.5041047198138268  0.0108840832793619
  0.9894280695913065  0.0048760640594420  0.2589843412055121
  0.5049817553975410  0.5045723596357390  0.7395176070015811
  0.7342392786271095  0.0007946467749651  0.4892282130931301
  0.0017588101063295  0.2458438232355148  0.5167326136512628
  0.4935345312088797  0.7597215595873131  0.9983412566304621
  0.5059508265520442  0.2395175362042422  0.0055738192565246
  0.0003305420368987  0.7662670852602341  0.5050217815231141
  0.7613711907565976  0.2599363941329279  0.7606767903202367
  0.2348065673785293  0.7574035934942598  0.2538646109804496
  0.7601666762099307  0.7621028370771594  0.2594159930708121
  0.2375134082532322  0.2405961400306262  0.7471747231947031

  0.00000000E+00  0.00000000E+00  0.00000000E+00
  0.00000000E+00  0.00000000E+00  0.00000000E+00
  0.00000000E+00  0.00000000E+00  0.00000000E+00
  0.00000000E+00  0.00000000E+00  0.00000000E+00
  0.00000000E+00  0.00000000E+00  0.00000000E+00
  0.00000000E+00  0.00000000E+00  0.00000000E+00
  0.00000000E+00  0.00000000E+00  0.00000000E+00
  0.00000000E+00  0.00000000E+00  0.00000000E+00
  0.00000000E+00  0.00000000E+00  0.00000000E+00
  0.00000000E+00  0.00000000E+00  0.00000000E+00
  0.00000000E+00  0.00000000E+00  0.00000000E+00
  0.00000000E+00  0.00000000E+00  0.00000000E+00
  0.00000000E+00  0.00000000E+00  0.00000000E+00
  0.00000000E+00  0.00000000E+00  0.00000000E+00
  0.00000000E+00  0.00000000E+00  0.00000000E+00
  0.00000000E+00  0.00000000E+00  0.00000000E+00
  0.00000000E+00  0.00000000E+00  0.00000000E+00
  0.00000000E+00  0.00000000E+00  0.00000000E+00
  0.00000000E+00  0.00000000E+00  0.00000000E+00
  0.00000000E+00  0.00000000E+00  0.00000000E+00
  0.00000000E+00  0.00000000E+00  0.00000000E+00
  0.00000000E+00  0.00000000E+00  0.00000000E+00
  0.00000000E+00  0.00000000E+00  0.00000000E+00
  0.00000000E+00  0.00000000E+00  0.00000000E+00
  0.00000000E+00  0.00000000E+00  0.00000000E+00
  0.00000000E+00  0.00000000E+00  0.00000000E+00
  0.00000000E+00  0.00000000E+00  0.00000000E+00
  0.00000000E+00  0.00000000E+00  0.00000000E+00
  0.00000000E+00  0.00000000E+00  0.00000000E+00
  0.00000000E+00  0.00000000E+00  0.00000000E+00
  0.00000000E+00  0.00000000E+00  0.00000000E+00
  0.00000000E+00  0.00000000E+00  0.00000000E+00
  0.00000000E+00  0.00000000E+00  0.00000000E+00
  0.00000000E+00  0.00000000E+00  0.00000000E+00
  0.00000000E+00  0.00000000E+00  0.00000000E+00
  0.00000000E+00  0.00000000E+00  0.00000000E+00
  0.00000000E+00  0.00000000E+00  0.00000000E+00
  0.00000000E+00  0.00000000E+00  0.00000000E+00
  0.00000000E+00  0.00000000E+00  0.00000000E+00
  0.00000000E+00  0.00000000E+00  0.00000000E+00
  0.00000000E+00  0.00000000E+00  0.00000000E+00
  0.00000000E+00  0.00000000E+00  0.00000000E+00
  0.00000000E+00  0.00000000E+00  0.00000000E+00
  0.00000000E+00  0.00000000E+00  0.00000000E+00
  0.00000000E+00  0.00000000E+00  0.00000000E+00
  0.00000000E+00  0.00000000E+00  0.00000000E+00
  0.00000000E+00  0.00000000E+00  0.00000000E+00
  0.00000000E+00  0.00000000E+00  0.00000000E+00
  0.00000000E+00  0.00000000E+00  0.00000000E+00
  0.00000000E+00  0.00000000E+00  0.00000000E+00
  0.00000000E+00  0.00000000E+00  0.00000000E+00
  0.00000000E+00  0.00000000E+00  0.00000000E+00
  0.00000000E+00  0.00000000E+00  0.00000000E+00
  0.00000000E+00  0.00000000E+00  0.00000000E+00
