opti conp comp defe
cell
7.453 7.453 7.453 51.648 51.648 51.648
fractional
Sc core 0.3339 0.3339 0.3339
Cl core 0.0737 0.4439 0.7053
Cl shel 0.0737 0.4439 0.7053
space
148
