# Compound: Li17Sc5Cl32. Old comment: Cl
   1.0000000000000000     
    10.2835042226211808   -0.0127391863611982   -0.0135979086341262
    -0.0126318128079883   10.3110625670962985   -0.0574130941236670
    -0.0136159896540697   -0.0569924077498810   10.3704732157473600
   Li   Sc   Cl
    17     5    32
Direct
  0.3828029372566535  0.3719581536915705  0.8826652663189652
  0.7604644669399988  0.7501521936116832  0.0165554755456390
  0.2605306420552565  0.7493745394854068  0.5059030556682218
  0.7500097756936046  0.4940098119006913  0.2504853375612614
  0.5057498447884730  0.0058339523402518  0.4943839771734528
  0.0834378087347212  0.8718566185941267  0.8717553531258179
  0.4945857947309209  0.4934596064695970  0.4946776409277840
  0.4941321438706196  0.7606786115943995  0.7498183049268805
  0.2716101106440968  0.7392381816244206  0.0166497523930078
  0.2610218692855287  0.2503253381451326  0.4835372504114887
  0.7504210788837868  0.2494998589734153  0.0165185208007166
  0.5053360632871279  0.2501656374974114  0.2615265753323098
  0.9946401096394122  0.7492974325295063  0.2499936427508332
  0.7382728223007733  0.7498997788439699  0.4834023291238128
  0.2828571556609404  0.0051282018850560  0.7392378810219252
  0.7496391676370224  0.0170955650020878  0.2497775659153765
  0.0051245742256029  0.5042068860795369  0.0057783928860794
  0.2498404817754990  0.4940516614248154  0.2507050806426674
  0.7478289525402030  0.5062096302389844  0.7450600147630270
  0.0037419429882442  0.2568366152236806  0.7518178948516731
  0.4949550800632316  0.9947371673063092  0.0056945147515657
  0.9942470561657313  0.9947209254174242  0.4831442942515594
  0.2511757922659783  0.2605718014563149  0.2499641856986915
  0.7413565750124218  0.5104262075844757  0.5097232816189436
  0.5084076377188753  0.0008780333370837  0.7650018608131984
  0.9986333149669585  0.7367282512285884  0.0131165012611336
  0.2549261137942490  0.9890030027573254  0.9901814035872537
  0.7503067818500420  0.7398236540369747  0.7585755803211157
  0.4881709802256026  0.2404143551264674  0.4943835023858296
  0.0088070106499624  0.4991939921035478  0.2436724752655837
  0.4969528809080185  0.7633580603872887  0.5160143257080082
  0.7548154326310026  0.4991424468343303  0.9877037442109825
  0.9836447254714896  0.0142696426429324  0.7340445696160487
  0.9950945421757799  0.2538714423179504  0.9812580685045741
  0.4911809679065229  0.4969410100632439  0.2559191926146397
  0.2380108995932532 -0.0010303223005536  0.5044203813625917
  0.2472693645365524  0.7675083233330013  0.7534343280583540
  0.5004759071762404  0.0009774635444286  0.2428621097029319
  0.7410589847639140  0.2593666202927387  0.2420752592152052
  0.9940472568390774  0.4960705212290425  0.7462571923719893
  0.2537252419004707  0.5011791475259479  0.4898096700998998
  0.7372290957140634  0.9958540166756771  0.0104393262652686
  0.2482074940474725  0.5057324897064929  0.0075538358675468
  0.9927283965540300  0.9961652367559056  0.2552875131626728
  0.5078596419830289  0.5038279154068950  0.7446373137105636
  0.7550590086686815  0.9903540382459695  0.4890879138162239
  0.0045631917891002  0.2388954362014121  0.5084104537354323
  0.5036680739256808  0.7566229789834424  0.9949965571811330
  0.5057439809641077  0.2361676103824599  0.0074896646481021
  0.0008142854229493  0.7612923691250771  0.4993637488400621
  0.7596593536865255  0.2637170119678420  0.7468392841553363
  0.2443422351249731  0.7357449049211966  0.2545528808289147
  0.7575465948240382  0.7327183837358006  0.2502197832523535
  0.2422683877415168  0.2454775565112236  0.7436159309753422

  0.00000000E+00  0.00000000E+00  0.00000000E+00
  0.00000000E+00  0.00000000E+00  0.00000000E+00
  0.00000000E+00  0.00000000E+00  0.00000000E+00
  0.00000000E+00  0.00000000E+00  0.00000000E+00
  0.00000000E+00  0.00000000E+00  0.00000000E+00
  0.00000000E+00  0.00000000E+00  0.00000000E+00
  0.00000000E+00  0.00000000E+00  0.00000000E+00
  0.00000000E+00  0.00000000E+00  0.00000000E+00
  0.00000000E+00  0.00000000E+00  0.00000000E+00
  0.00000000E+00  0.00000000E+00  0.00000000E+00
  0.00000000E+00  0.00000000E+00  0.00000000E+00
  0.00000000E+00  0.00000000E+00  0.00000000E+00
  0.00000000E+00  0.00000000E+00  0.00000000E+00
  0.00000000E+00  0.00000000E+00  0.00000000E+00
  0.00000000E+00  0.00000000E+00  0.00000000E+00
  0.00000000E+00  0.00000000E+00  0.00000000E+00
  0.00000000E+00  0.00000000E+00  0.00000000E+00
  0.00000000E+00  0.00000000E+00  0.00000000E+00
  0.00000000E+00  0.00000000E+00  0.00000000E+00
  0.00000000E+00  0.00000000E+00  0.00000000E+00
  0.00000000E+00  0.00000000E+00  0.00000000E+00
  0.00000000E+00  0.00000000E+00  0.00000000E+00
  0.00000000E+00  0.00000000E+00  0.00000000E+00
  0.00000000E+00  0.00000000E+00  0.00000000E+00
  0.00000000E+00  0.00000000E+00  0.00000000E+00
  0.00000000E+00  0.00000000E+00  0.00000000E+00
  0.00000000E+00  0.00000000E+00  0.00000000E+00
  0.00000000E+00  0.00000000E+00  0.00000000E+00
  0.00000000E+00  0.00000000E+00  0.00000000E+00
  0.00000000E+00  0.00000000E+00  0.00000000E+00
  0.00000000E+00  0.00000000E+00  0.00000000E+00
  0.00000000E+00  0.00000000E+00  0.00000000E+00
  0.00000000E+00  0.00000000E+00  0.00000000E+00
  0.00000000E+00  0.00000000E+00  0.00000000E+00
  0.00000000E+00  0.00000000E+00  0.00000000E+00
  0.00000000E+00  0.00000000E+00  0.00000000E+00
  0.00000000E+00  0.00000000E+00  0.00000000E+00
  0.00000000E+00  0.00000000E+00  0.00000000E+00
  0.00000000E+00  0.00000000E+00  0.00000000E+00
  0.00000000E+00  0.00000000E+00  0.00000000E+00
  0.00000000E+00  0.00000000E+00  0.00000000E+00
  0.00000000E+00  0.00000000E+00  0.00000000E+00
  0.00000000E+00  0.00000000E+00  0.00000000E+00
  0.00000000E+00  0.00000000E+00  0.00000000E+00
  0.00000000E+00  0.00000000E+00  0.00000000E+00
  0.00000000E+00  0.00000000E+00  0.00000000E+00
  0.00000000E+00  0.00000000E+00  0.00000000E+00
  0.00000000E+00  0.00000000E+00  0.00000000E+00
  0.00000000E+00  0.00000000E+00  0.00000000E+00
  0.00000000E+00  0.00000000E+00  0.00000000E+00
  0.00000000E+00  0.00000000E+00  0.00000000E+00
  0.00000000E+00  0.00000000E+00  0.00000000E+00
  0.00000000E+00  0.00000000E+00  0.00000000E+00
  0.00000000E+00  0.00000000E+00  0.00000000E+00
