# Compound: Li17Sc5Cl32. Old comment: Cl
   1.0000000000000000     
    10.3320918266598927    0.0406524806493983    0.0008961224045346
     0.0404636511157904   10.3245796870480699   -0.0044619414770464
     0.0008925000411119   -0.0044520770537509   10.2481762816207613
   Li   Sc   Cl
    17     5    32
Direct
  0.3829687304863271  0.3724164242824979  0.8832005090819941
  0.2497368012142759  0.7509265379377777  0.5058191333700208
  0.0058944113532173  0.7503697546236439  0.7604230574303504
  0.7497536033073650  0.5057111869022332  0.2500218361500163
  0.4938421919138629  0.0057223199743650  0.5058947849470739
  0.1276719319274117  0.1273257036245871  0.3380805727603061
  0.4999275873308281  0.4952533138043281  0.4954653372912544
  0.4831323470751129  0.7503934841355407  0.7494613087041754
  0.2389858072637486  0.7609594638953904  0.9938655640076846
  0.2724903653022164  0.2611794658179411  0.5165740370948614
  0.7510484569080020  0.2498681360029500  0.0046675988662318
  0.5056225008188856  0.2608430272045769  0.2614790665138468
  0.0019152506996751  0.7428742879575221  0.2400525205945760
  0.7497116388937303  0.7500438588609957  0.5049797543998347
  0.2498427218943980  0.9943912006430791  0.7497742955831912
  0.0052910940564349  0.5054887693924085  0.0048623335907995
  0.9834333459332328  0.9833871251948408  0.5169691659495987
  0.2504407744360295  0.5056762658169005  0.2499662675928868
  0.7496224172418916  0.5052292437576470  0.7496653536854040
  0.0047855768028771  0.2395141522826380  0.7503150080759191
  0.4891739115035458  0.9931962574461987  0.9930004819959268
  0.7500930394777955  0.9945910124526345  0.2499185230325408
  0.2650928171662348  0.2666590163626235  0.2448792780628605
  0.7411358456291871  0.5067580600644385  0.5059435383242169
  0.4941039634554830  0.0012489357260962  0.7558830841629929
  0.0080480868368461  0.7369924692129146  0.9957236310143410
  0.2571941904974381  0.0018081390002701  0.9996004647300912
  0.7572626390097730  0.7382865496444283  0.7499681774699016
  0.4956120199529545  0.2478965659510427  0.4936110362888160
  0.0092785289580862  0.5001048171129674  0.2453125035895407
  0.4974272345085730  0.7575373597576039  0.5145120949504991
  0.7552867066664540  0.4909686655299148  0.9915645645857253
  0.0001316015433668  0.0059743803104322  0.7525656509634433
  0.9960301962050226  0.2569708118044822  0.9845066117688024
  0.4952999659510872  0.4995485903268015  0.2518639909573903
  0.2470495026346818  0.0077404764459392  0.4965808330261365
  0.2440213679997146  0.7602100905676267  0.7473505455156243
  0.5067083792440438 -0.0008618376593371  0.2429284295371425
  0.7477566751976562  0.2369366995939984  0.2438771148595439
  0.9925585878975165  0.4890609009717717  0.7424745765113729
  0.2558627793011887  0.5013819994797297  0.4899221406901251
  0.7365110877153306 -0.0024599852015597  0.0067289270970774
  0.2497835812286303  0.5084383577339502  0.0074955986242635
  0.9859656737205797  0.9871414201463443  0.2468474529534368
  0.5110689861505358  0.5033918775313297  0.7465710384007478
  0.7419774730026928  0.9968818495917742  0.4883038784086327
  0.0111400826457296  0.2366804668356288  0.5072330608296250
  0.4894269542715458  0.7611738913049317  0.9912294064842014
  0.5108913541000744  0.2363985756895627  0.0078039002189405
  0.9983798052965415  0.7579278080532247  0.5073357989704784
  0.7616851498044905  0.2603777561216788  0.7473738646436933
  0.2432554018623395  0.7416591822413579  0.2533405682121547
  0.7554700162291560  0.7546459339463844  0.2554471517365868
  0.2431988394761810  0.2471591837909513  0.7497645556931183

  0.00000000E+00  0.00000000E+00  0.00000000E+00
  0.00000000E+00  0.00000000E+00  0.00000000E+00
  0.00000000E+00  0.00000000E+00  0.00000000E+00
  0.00000000E+00  0.00000000E+00  0.00000000E+00
  0.00000000E+00  0.00000000E+00  0.00000000E+00
  0.00000000E+00  0.00000000E+00  0.00000000E+00
  0.00000000E+00  0.00000000E+00  0.00000000E+00
  0.00000000E+00  0.00000000E+00  0.00000000E+00
  0.00000000E+00  0.00000000E+00  0.00000000E+00
  0.00000000E+00  0.00000000E+00  0.00000000E+00
  0.00000000E+00  0.00000000E+00  0.00000000E+00
  0.00000000E+00  0.00000000E+00  0.00000000E+00
  0.00000000E+00  0.00000000E+00  0.00000000E+00
  0.00000000E+00  0.00000000E+00  0.00000000E+00
  0.00000000E+00  0.00000000E+00  0.00000000E+00
  0.00000000E+00  0.00000000E+00  0.00000000E+00
  0.00000000E+00  0.00000000E+00  0.00000000E+00
  0.00000000E+00  0.00000000E+00  0.00000000E+00
  0.00000000E+00  0.00000000E+00  0.00000000E+00
  0.00000000E+00  0.00000000E+00  0.00000000E+00
  0.00000000E+00  0.00000000E+00  0.00000000E+00
  0.00000000E+00  0.00000000E+00  0.00000000E+00
  0.00000000E+00  0.00000000E+00  0.00000000E+00
  0.00000000E+00  0.00000000E+00  0.00000000E+00
  0.00000000E+00  0.00000000E+00  0.00000000E+00
  0.00000000E+00  0.00000000E+00  0.00000000E+00
  0.00000000E+00  0.00000000E+00  0.00000000E+00
  0.00000000E+00  0.00000000E+00  0.00000000E+00
  0.00000000E+00  0.00000000E+00  0.00000000E+00
  0.00000000E+00  0.00000000E+00  0.00000000E+00
  0.00000000E+00  0.00000000E+00  0.00000000E+00
  0.00000000E+00  0.00000000E+00  0.00000000E+00
  0.00000000E+00  0.00000000E+00  0.00000000E+00
  0.00000000E+00  0.00000000E+00  0.00000000E+00
  0.00000000E+00  0.00000000E+00  0.00000000E+00
  0.00000000E+00  0.00000000E+00  0.00000000E+00
  0.00000000E+00  0.00000000E+00  0.00000000E+00
  0.00000000E+00  0.00000000E+00  0.00000000E+00
  0.00000000E+00  0.00000000E+00  0.00000000E+00
  0.00000000E+00  0.00000000E+00  0.00000000E+00
  0.00000000E+00  0.00000000E+00  0.00000000E+00
  0.00000000E+00  0.00000000E+00  0.00000000E+00
  0.00000000E+00  0.00000000E+00  0.00000000E+00
  0.00000000E+00  0.00000000E+00  0.00000000E+00
  0.00000000E+00  0.00000000E+00  0.00000000E+00
  0.00000000E+00  0.00000000E+00  0.00000000E+00
  0.00000000E+00  0.00000000E+00  0.00000000E+00
  0.00000000E+00  0.00000000E+00  0.00000000E+00
  0.00000000E+00  0.00000000E+00  0.00000000E+00
  0.00000000E+00  0.00000000E+00  0.00000000E+00
  0.00000000E+00  0.00000000E+00  0.00000000E+00
  0.00000000E+00  0.00000000E+00  0.00000000E+00
  0.00000000E+00  0.00000000E+00  0.00000000E+00
  0.00000000E+00  0.00000000E+00  0.00000000E+00
