ADDGRID = .TRUE.
ALGO = Normal
EDIFF = 1e-06
EDIFFG = -0.01
ENCUT = 650
GGA = PS
IBRION = 2
ISIF = 3
ISMEAR = 0
ISPIN = 1
ISYM = 0
LASPH = .TRUE.
LREAL = Auto
LWAVE = .FALSE.
NPAR = 6
NELM = 200
NSW = 400
PREC = Accurate
SIGMA = 0.05
