# Compound: Li17Sc5Cl32. Old comment: Cl
   1.0000000000000000     
    10.2413577965909539   -0.0358662741605652   -0.0019006910440257
    -0.0358832164871089   10.3614162894626940   -0.0291484709650369
    -0.0019441781526318   -0.0291229606012655   10.3691044779499197
   Li   Sc   Cl
    17     5    32
Direct
  0.3722411914906773  0.3831921299178227  0.8828975349411433
  0.7503365034825634  0.7616122020028230  0.0055939152046116
  0.2608291924185231  0.7288515374928469  0.4945550178055122
  0.7605263880545463  0.5051616069398341  0.2502555444190873
  0.5052085455554139  0.9946833571813716  0.5163972913756121
  0.9164380766473740  0.1275268324316568  0.1278865896484475
  0.4944243188854429  0.5058905309494447  0.4944336352469637
  0.4945516317251806  0.7716940743639816  0.7497086488066753
  0.2281564396333440  0.4948252821266545  0.2609001231456843
  0.2607030662504700  0.2719293372598612  0.4941244310207379
  0.5008107594565119  0.9967257224640584  0.9840705752130287
  0.7273594529969151  0.2500540309037311  0.9835950021027593
  0.9949752530380451  0.7283905874451606  0.2498307952903614
  0.7388070567266452  0.7498626879479037  0.4940170151369873
  0.2689899469286832  0.9938008041318842  0.7590117036432388
  0.7275273229833490  0.9718056088834318  0.2502313259135456
  0.0053196770077488  0.5059370291643384  0.0164330536003349
  0.2493974439358495  0.7598991130546455  0.0016789964805716
  0.7492965579045159  0.5075448438583632  0.7448678782018859
  0.0051280583722631  0.2502933771410440  0.7493264998431184
  0.4945428666144251  0.2497702174710475  0.2504296181719557
  0.9962296686553610  0.9902384684791072  0.5018455332165171
  0.2586931954959064  0.2569762154170929  0.2546506543375814
  0.7444378993952182  0.5110782027528330  0.5097825995876274
  0.4979494846778583  0.0014988200286317  0.7483629643941887
  0.0064680183923974  0.7449574528825311  0.0022287228416505
  0.2511573587738124  0.9927267682993733  0.9943698307428929
  0.7492488640798267  0.7410193588551195  0.7568477666819395
  0.4994817689761870  0.2450887707078833  0.4884154431737198
  0.9922254734834554  0.4987523746561178  0.2430640522239151
  0.4989780752252287  0.7555055101893886  0.5113504752133003
  0.7548835502103795  0.5002347381173032  0.9851386560292320
 -0.0089245455746252  0.0119059811642091  0.7447220920117974
  0.0031265710666363  0.2654581775356797  0.9832974441308414
  0.5140514157787293  0.4858713100290941  0.2544282272291017
  0.2381187067134659 -0.0061973342613029  0.5143833677741753
  0.2511584775739304  0.7527190353771684  0.7622841151096530
  0.4997540539396057  0.0119150553182731  0.2553819056638637
  0.7449513005253375  0.2541978080163446  0.2321893378951268
  0.9946815652801970  0.4896899258854404  0.7434535426473377
  0.2610614027546571  0.5017024197986800  0.4904166439907315
  0.7514360310771433  0.0063554867394712  0.0173694981329820
  0.2447734966645387  0.5148655967907438  0.0087172782519511
  0.0021722157057212  0.9875902533981075  0.2672491686770154
  0.5105102341949119  0.5000161099421437  0.7438829297384013
  0.7558325263793746  0.9891041601010204  0.4902020381033696
  0.0035744069114974  0.2356053794604023  0.5089218619003416
  0.4934409058867136  0.7597719472936201  0.9936841241591515
  0.4958645570784369  0.2401591100676051  0.0068128144807820
  0.0000501361332129  0.7565057063461900  0.5005274881866647
  0.7591628143469786  0.2616624965062420  0.7480868450860920
  0.2423432931083116  0.7435090654104034  0.2407898543333528
  0.7553454996652498  0.7426239958927682  0.2448666563687185
  0.2431918173158433  0.2474406896704067  0.7420308324737109

  0.00000000E+00  0.00000000E+00  0.00000000E+00
  0.00000000E+00  0.00000000E+00  0.00000000E+00
  0.00000000E+00  0.00000000E+00  0.00000000E+00
  0.00000000E+00  0.00000000E+00  0.00000000E+00
  0.00000000E+00  0.00000000E+00  0.00000000E+00
  0.00000000E+00  0.00000000E+00  0.00000000E+00
  0.00000000E+00  0.00000000E+00  0.00000000E+00
  0.00000000E+00  0.00000000E+00  0.00000000E+00
  0.00000000E+00  0.00000000E+00  0.00000000E+00
  0.00000000E+00  0.00000000E+00  0.00000000E+00
  0.00000000E+00  0.00000000E+00  0.00000000E+00
  0.00000000E+00  0.00000000E+00  0.00000000E+00
  0.00000000E+00  0.00000000E+00  0.00000000E+00
  0.00000000E+00  0.00000000E+00  0.00000000E+00
  0.00000000E+00  0.00000000E+00  0.00000000E+00
  0.00000000E+00  0.00000000E+00  0.00000000E+00
  0.00000000E+00  0.00000000E+00  0.00000000E+00
  0.00000000E+00  0.00000000E+00  0.00000000E+00
  0.00000000E+00  0.00000000E+00  0.00000000E+00
  0.00000000E+00  0.00000000E+00  0.00000000E+00
  0.00000000E+00  0.00000000E+00  0.00000000E+00
  0.00000000E+00  0.00000000E+00  0.00000000E+00
  0.00000000E+00  0.00000000E+00  0.00000000E+00
  0.00000000E+00  0.00000000E+00  0.00000000E+00
  0.00000000E+00  0.00000000E+00  0.00000000E+00
  0.00000000E+00  0.00000000E+00  0.00000000E+00
  0.00000000E+00  0.00000000E+00  0.00000000E+00
  0.00000000E+00  0.00000000E+00  0.00000000E+00
  0.00000000E+00  0.00000000E+00  0.00000000E+00
  0.00000000E+00  0.00000000E+00  0.00000000E+00
  0.00000000E+00  0.00000000E+00  0.00000000E+00
  0.00000000E+00  0.00000000E+00  0.00000000E+00
  0.00000000E+00  0.00000000E+00  0.00000000E+00
  0.00000000E+00  0.00000000E+00  0.00000000E+00
  0.00000000E+00  0.00000000E+00  0.00000000E+00
  0.00000000E+00  0.00000000E+00  0.00000000E+00
  0.00000000E+00  0.00000000E+00  0.00000000E+00
  0.00000000E+00  0.00000000E+00  0.00000000E+00
  0.00000000E+00  0.00000000E+00  0.00000000E+00
  0.00000000E+00  0.00000000E+00  0.00000000E+00
  0.00000000E+00  0.00000000E+00  0.00000000E+00
  0.00000000E+00  0.00000000E+00  0.00000000E+00
  0.00000000E+00  0.00000000E+00  0.00000000E+00
  0.00000000E+00  0.00000000E+00  0.00000000E+00
  0.00000000E+00  0.00000000E+00  0.00000000E+00
  0.00000000E+00  0.00000000E+00  0.00000000E+00
  0.00000000E+00  0.00000000E+00  0.00000000E+00
  0.00000000E+00  0.00000000E+00  0.00000000E+00
  0.00000000E+00  0.00000000E+00  0.00000000E+00
  0.00000000E+00  0.00000000E+00  0.00000000E+00
  0.00000000E+00  0.00000000E+00  0.00000000E+00
  0.00000000E+00  0.00000000E+00  0.00000000E+00
  0.00000000E+00  0.00000000E+00  0.00000000E+00
  0.00000000E+00  0.00000000E+00  0.00000000E+00
