opti conp comp
cell
10.4037 10.4037 10.4037 90 90 90
frac
Li core 0.375000 0.375000 0.875000    
Li core 0.250000 0.750000 0.500000    
Li core 0.000000 0.750000 0.750000    
Li core 0.750000 0.500000 0.250000    
Li core 0.500000 0.000000 0.500000    
Li core 0.125000 0.875000 0.125000    
Li core 0.500000 0.500000 0.500000    
Li core 0.500000 0.750000 0.750000    
Li core 0.250000 0.750000 0.000000  
Li core 0.250000 0.250000 0.500000    
Li core 0.750000 0.250000 0.000000    
Li core 0.500000 0.250000 0.250000   
Li core 0.000000 0.750000 0.250000    
Li core 0.750000 0.750000 0.500000
Li core 0.250000 0.000000 0.750000 
Li core 0.000000 0.500000 0.000000  
Li core 0.000000 0.000000 0.500000 
Sc core 0.250000 0.500000 0.250000
Sc core 0.750000 0.500000 0.750000  
Sc core 0.000000 0.250000 0.750000
Sc core 0.500000 0.000000 0.000000  
Sc core 0.750000 0.000000 0.250000
Cl core 0.250000 0.250000 0.250000    
Cl core 0.750000 0.500000 0.500000    
Cl core 0.500000 0.000000 0.750000   
Cl core 0.000000 0.750000 0.000000  
Cl core 0.250000 0.000000 0.000000    
Cl core 0.750000 0.750000 0.750000    
Cl core 0.500000 0.250000 0.500000  
Cl core 0.000000 0.500000 0.250000  
Cl core 0.500000 0.750000 0.500000 
Cl core 0.750000 0.500000 0.000000   
Cl core 0.000000 0.000000 0.750000   
Cl core 0.000000 0.250000 0.000000   
Cl core 0.500000 0.500000 0.250000  
Cl core 0.250000 0.000000 0.500000  
Cl core 0.250000 0.750000 0.750000 
Cl core 0.500000 0.000000 0.250000   
Cl core 0.750000 0.250000 0.250000  
Cl core 0.000000 0.500000 0.750000  
Cl core 0.250000 0.500000 0.500000 
Cl core 0.750000 0.000000 0.000000   
Cl core 0.250000 0.500000 0.000000 
Cl core 0.000000 0.000000 0.250000   
Cl core 0.500000 0.500000 0.750000  
Cl core 0.750000 0.000000 0.500000  
Cl core 0.000000 0.250000 0.500000   
Cl core 0.500000 0.750000 0.000000   
Cl core 0.500000 0.250000 0.000000   
Cl core 0.000000 0.750000 0.500000    
Cl core 0.750000 0.250000 0.750000    
Cl core 0.250000 0.750000 0.250000  
Cl core 0.750000 0.750000 0.250000    
Cl core 0.250000 0.250000 0.750000    
space
1
species
Li core 1.000
Sc core 3.000
Cl core -1.000
buckingham
Li core Li core   360.53 0.1610  0.00 0 12
Li core Cl core   220.00 0.3400  0.00 0 12
Sc core Cl core 26156.48 0.2499  0.00 0 12
Cl core Cl core  1227.20 0.3210 14.53 0 12
dump halospinel.grs
