# Compound: Li17Sc5Cl32. Old comment: Cl
   1.0000000000000000     
    10.3008028761191337    0.0211085507853523    0.0466436457000736
     0.0209637908134123   10.2741347699766656    0.0199333472408016
     0.0456926543019332    0.0197494285591700   10.3778959359270413
   Li   Sc   Cl
    17     5    32
Direct
  0.3721419177472550  0.3830398820244779  0.8728225106275812
  0.2609763217329760  0.9946809067642602  0.2386748437748716
 -0.0057681726997934  0.7498571854564566  0.7613605424570272
  0.7505199731765989  0.5054969616424365  0.2717009475198523
  0.5053849839845534  0.0058857174201098  0.4945406474667828
  0.6269130573340439  0.8276298841798216  0.1280569593614482
  0.5052660453981710  0.4825906202348879  0.4945174367839999
  0.2386030778908181  0.7609831420465422 -0.0048479410969984
  0.7493928621518634  0.5053130457362858  0.7281384933729836
  0.2712051401325147  0.2505154810427245  0.4942720624299391
  0.4828715806248805  0.0164006000833547  0.9836945743549464
  0.4947148671874996  0.2497367196825775  0.2612654544451312
  0.0050269094538861  0.7496554454954014  0.2171163647430825
  0.7495650874920892  0.7388383132647413  0.4955588247158649
  0.2502664988728837  0.9945581702607021  0.7723441963158513
  0.7609458337366153  0.0168290175106401  0.2611632237752877
  0.0048004697889338  0.5162748385249192  0.0058065471377058
  0.4954595516729113  0.7510522827190499  0.7436733947091424
  0.2500161962822909  0.5000286284246724  0.2584664696347538
  0.0049267030584740  0.2606085011004386  0.7499063976846989
  0.7497172179767612  0.2500189522265069  0.0058360359539689
  0.9950605697986876  0.9946692529270426  0.4949228354020072
  0.2543951953000205  0.2568093405838862  0.2542222354514863
  0.7383181836582099  0.5052166226555426  0.4988114567788070
  0.4907306533071641  0.9920967569355242  0.7451949658897016
  0.0031235849379242  0.7457383989280822  0.9882230945280406
  0.2556697138888481  0.9975926055690651  0.0048228694504421
  0.7367023013471933  0.7438571968237685  0.7471381535282586
  0.4964279100761178  0.2390415121654041  0.4924508667578683
  0.0095689332178307  0.5047906865977763  0.2452821456767675
  0.5024506108784517  0.7603673471665278  0.5092330259140637
  0.7574822412952719  0.4863956857826400  0.0068779118701416
  0.0017670297101336  0.0110683315881584  0.7429701525849648
  0.9936401342253757  0.2446202182397128  0.9888624429976960
  0.4915582087963192  0.4968444251915570  0.2537373066929904
  0.2372192476661286  0.0061369132457988  0.4951066131860994
  0.2544664581370729  0.7552346397404139  0.7543773892084098
  0.5057450001485114 -0.0046470118483083  0.2486848858534019
  0.7467306071640812  0.2544437001437598  0.2415403114942248
  0.9946545319211522  0.4943647679456161  0.7539551399098465
  0.2555781943174175  0.4909144854105517  0.4901941185068698
  0.7388453110757055  0.0077037528765199  0.0158095501171486
  0.2438802014183353  0.5025866052633877  0.0133226333711310
  0.0042899537355548  0.9959511539280270  0.2615261658348351
  0.5031183060508904  0.5081712132371238  0.7382684261089827
  0.7582150024500347 -0.0007875659434831  0.4947861024255938
 -0.0024746191308406  0.2419480728286863  0.5130843068875692
  0.4857616618844667  0.7504716886480054  0.9823259481375540
  0.5097652931147977  0.2500324256332346  0.0009566302059203
  0.9955517284379707  0.7621205992724143  0.5234425526690268
  0.7613429065389683  0.2516730340315312  0.7626868452821117
  0.2426078353074843  0.7423343123937207  0.2441050267533278
  0.7729885229285810  0.7478980564396581  0.2638817909568963
  0.2418724333999197  0.2433464797576453  0.7451281533998977

  0.00000000E+00  0.00000000E+00  0.00000000E+00
  0.00000000E+00  0.00000000E+00  0.00000000E+00
  0.00000000E+00  0.00000000E+00  0.00000000E+00
  0.00000000E+00  0.00000000E+00  0.00000000E+00
  0.00000000E+00  0.00000000E+00  0.00000000E+00
  0.00000000E+00  0.00000000E+00  0.00000000E+00
  0.00000000E+00  0.00000000E+00  0.00000000E+00
  0.00000000E+00  0.00000000E+00  0.00000000E+00
  0.00000000E+00  0.00000000E+00  0.00000000E+00
  0.00000000E+00  0.00000000E+00  0.00000000E+00
  0.00000000E+00  0.00000000E+00  0.00000000E+00
  0.00000000E+00  0.00000000E+00  0.00000000E+00
  0.00000000E+00  0.00000000E+00  0.00000000E+00
  0.00000000E+00  0.00000000E+00  0.00000000E+00
  0.00000000E+00  0.00000000E+00  0.00000000E+00
  0.00000000E+00  0.00000000E+00  0.00000000E+00
  0.00000000E+00  0.00000000E+00  0.00000000E+00
  0.00000000E+00  0.00000000E+00  0.00000000E+00
  0.00000000E+00  0.00000000E+00  0.00000000E+00
  0.00000000E+00  0.00000000E+00  0.00000000E+00
  0.00000000E+00  0.00000000E+00  0.00000000E+00
  0.00000000E+00  0.00000000E+00  0.00000000E+00
  0.00000000E+00  0.00000000E+00  0.00000000E+00
  0.00000000E+00  0.00000000E+00  0.00000000E+00
  0.00000000E+00  0.00000000E+00  0.00000000E+00
  0.00000000E+00  0.00000000E+00  0.00000000E+00
  0.00000000E+00  0.00000000E+00  0.00000000E+00
  0.00000000E+00  0.00000000E+00  0.00000000E+00
  0.00000000E+00  0.00000000E+00  0.00000000E+00
  0.00000000E+00  0.00000000E+00  0.00000000E+00
  0.00000000E+00  0.00000000E+00  0.00000000E+00
  0.00000000E+00  0.00000000E+00  0.00000000E+00
  0.00000000E+00  0.00000000E+00  0.00000000E+00
  0.00000000E+00  0.00000000E+00  0.00000000E+00
  0.00000000E+00  0.00000000E+00  0.00000000E+00
  0.00000000E+00  0.00000000E+00  0.00000000E+00
  0.00000000E+00  0.00000000E+00  0.00000000E+00
  0.00000000E+00  0.00000000E+00  0.00000000E+00
  0.00000000E+00  0.00000000E+00  0.00000000E+00
  0.00000000E+00  0.00000000E+00  0.00000000E+00
  0.00000000E+00  0.00000000E+00  0.00000000E+00
  0.00000000E+00  0.00000000E+00  0.00000000E+00
  0.00000000E+00  0.00000000E+00  0.00000000E+00
  0.00000000E+00  0.00000000E+00  0.00000000E+00
  0.00000000E+00  0.00000000E+00  0.00000000E+00
  0.00000000E+00  0.00000000E+00  0.00000000E+00
  0.00000000E+00  0.00000000E+00  0.00000000E+00
  0.00000000E+00  0.00000000E+00  0.00000000E+00
  0.00000000E+00  0.00000000E+00  0.00000000E+00
  0.00000000E+00  0.00000000E+00  0.00000000E+00
  0.00000000E+00  0.00000000E+00  0.00000000E+00
  0.00000000E+00  0.00000000E+00  0.00000000E+00
  0.00000000E+00  0.00000000E+00  0.00000000E+00
  0.00000000E+00  0.00000000E+00  0.00000000E+00
