opti conp comp
cell
10.280295220000 10.313307682044 10.287102393535 90.16406533 90.18151856 90.05878367
frac
Li core 0.37253879 0.37228487 0.88310626
Li core 0.50592971 0.75054488 0.25136824
Li core 0.26062488 0.73934239 0.51674214
Li core 0.75077576 0.49493955 0.25076930
Li core 0.50586284 0.01509470 0.50581364
Li core 0.77239696 0.77191168 0.00597408
Li core 0.50477615 0.47266944 0.50524832
Li core 0.49407832 0.75042922 0.74949172
Li core 0.23788427 0.76093076 0.98333150
Li core 0.26077903 0.24997994 0.49420697
Li core 0.76089328 0.25994676 0.01651406
Li core 0.50598245 0.25010056 0.26141320
Li core -0.00247588 0.75547548 0.24280229
Li core 0.74953864 0.75047460 0.50453645
Li core 0.25044572 0.98336792 0.75099237
Li core 0.75879755 0.03472165 0.25030736
Li core 0.00558890 0.51637876 0.00554049
Sc core 0.24966594 0.49461636 0.25070953
Sc core 0.75013616 0.50566163 0.74986490
Sc core 0.00528128 0.24993181 0.76092032
Sc core 0.49502708 0.00544559 0.99503999
Sc core 0.99479738 0.99478144 0.49455974
Cl core 0.25953889 0.26256055 0.25179248
Cl core 0.74417252 0.51014856 0.51165127
Cl core 0.49937127 -0.00059173 0.75709524
Cl core 0.00245926 0.74697742 0.01080089
Cl core 0.26133781 -0.00313108 0.99508954
Cl core 0.74571292 0.74178401 0.75540652
Cl core 0.49247588 0.24180420 0.49558006
Cl core 0.01137468 0.50689826 0.24843068
Cl core 0.50247588 0.76635038 0.50122149
Cl core 0.75558440 0.50589884 0.99179089
Cl core -0.00096149 0.01020975 0.74490305
Cl core 0.00060684 0.26264525 0.99217955
Cl core 0.49600329 0.50475908 0.25906501
Cl core 0.23934923 -0.00277681 0.50714922
Cl core 0.26207147 0.75208230 0.75009358
Cl core 0.50917116 0.00047347 0.24260961
Cl core 0.74346366 0.26617620 0.24498052
Cl core 0.99391786 0.49340650 0.74884605
Cl core 0.25949021 0.49899552 0.49207507
Cl core 0.73932931 0.00702035 0.00688537
Cl core 0.25069006 0.51430444 0.00944945
Cl core 0.99426522 -0.00028474 0.26240191
Cl core 0.51005544 0.50075632 0.74649192
Cl core 0.75638246 0.99368444 0.49681809
Cl core 0.00483372 0.23950832 0.51474139
Cl core 0.50615837 0.76384938 0.00366987
Cl core 0.50943908 0.24466809 0.00877485
Cl core 0.00100810 0.75948070 0.49995805
Cl core 0.76041245 0.26294804 0.75662752
Cl core 0.25719954 0.73844488 0.25732962
Cl core 0.74981189 0.73684274 0.25124659
Cl core 0.24347336 0.24507636 0.74459180
space
1
species
Li core 1.000
Sc core 3.000
Cl core -1.000
buckingham
Li core Li core   360.53 0.1610  0.00 0 12
Li core Cl core   220.00 0.3400  0.00 0 12
Sc core Cl core 26156.48 0.2499  0.00 0 12
Cl core Cl core  1227.20 0.3210 14.53 0 12
dump halospinel.grs
