opti conp comp
cell
10.4037 10.4037 10.4037 90 90 90
frac
Li core 0.37500000 0.37500000 0.87500000
Li core 0.50000000 0.75000000 0.25000000
Li core 0.25000000 0.75000000 0.50000000
Li core 0.75000000 0.50000000 0.25000000
Li core 0.50000000 0.00000000 0.50000000
Li core 0.87500000 0.87500000 0.11400000
Li core 0.50000000 0.50000000 0.50000000
Li core 0.50000000 0.75000000 0.75000000
Li core 0.25000000 0.75000000 0.00000000
Li core 0.25000000 0.25000000 0.50000000
Li core 0.75000000 0.25000000 0.00000000
Li core 0.50000000 0.25000000 0.25000000
Li core 0.00000000 0.75000000 0.25000000
Li core 0.75000000 0.75000000 0.50000000
Li core 0.25000000 0.00000000 0.75000000
Li core 0.75000000 0.00000000 0.25000000
Li core -0.00000000 0.50000000 -0.00000000
Sc core 0.25000000 0.50000000 0.25000000
Sc core 0.75000000 0.50000000 0.75000000
Sc core -0.00000000 0.25000000 0.75000000
Sc core 0.50000000 0.00000000 -0.00000000
Sc core 0.00000000 0.00000000 0.50000000
Cl core 0.25435000 0.25435000 0.25435000
Cl core 0.74565000 0.50435000 0.50435000
Cl core 0.49565000 0.99565000 0.75435000
Cl core 0.00435000 0.74565000 0.00435000
Cl core 0.25435000 0.99565000 0.99565000
Cl core 0.74565000 0.74565000 0.74565000
Cl core 0.49565000 0.25435000 0.49565000
Cl core 0.00435000 0.50435000 0.24565000
Cl core 0.50435000 0.74565000 0.50435000
Cl core 0.75435000 0.49565000 0.99565000
Cl core 0.00435000 0.00435000 0.74565000
Cl core 0.99565000 0.25435000 0.99565000
Cl core 0.49565000 0.49565000 0.25435000
Cl core 0.24565000 0.00435000 0.50435000
Cl core 0.25435000 0.75435000 0.75435000
Cl core 0.50435000 0.00435000 0.24565000
Cl core 0.74565000 0.24565000 0.24565000
Cl core 0.99565000 0.49565000 0.75435000
Cl core 0.25435000 0.49565000 0.49565000
Cl core 0.74565000 0.00435000 0.00435000
Cl core 0.24565000 0.50435000 0.00435000
Cl core 0.99565000 0.99565000 0.25435000
Cl core 0.50435000 0.50435000 0.74565000
Cl core 0.75435000 0.99565000 0.49565000
Cl core 0.00435000 0.24565000 0.50435000
Cl core 0.49565000 0.75435000 0.99565000
Cl core 0.50435000 0.24565000 0.00435000
Cl core 0.99565000 0.75435000 0.49565000
Cl core 0.75435000 0.25435000 0.75435000
Cl core 0.24565000 0.74565000 0.24565000
Cl core 0.75435000 0.75435000 0.25435000
Cl core 0.24565000 0.24565000 0.74565000  
space
1
species
Li core 1.000
Sc core 3.000
Cl core -1.000
buckingham
Li core Li core   360.53 0.1610  0.00 0 12
Li core Cl core   220.00 0.3400  0.00 0 12
Sc core Cl core 26156.48 0.2499  0.00 0 12
Cl core Cl core  1227.20 0.3210 14.53 0 12
dump halospinel.grs
