ADDGRID = True
ALGO = Fast
ANDERSEN_PROB = 0
EDIFF = 1e-05
ENCUT = 500
GGA = Ps
IBRION = 0
ISIF = 2
ISMEAR = 0
ISPIN = 1
ISYM = 0
LASPH = True
LCHARG = False
LMAXMIX = 4
LREAL = Auto
LWAVE = False
MAXMIX = 20
MDALGO = 1
NBLOCK = 1
NELM = 200
NELMIN = 4
NPAR = 6
NSW = 10000
POTIM = 2
PREC = Normal
SIGMA = 0.05
TEBEG = 400
TEEND = 400
