# Compound: Li17Sc5Cl32. Old comment: Cl
   1.0000000000000000     
    10.2802806220408591   -0.0059802240603588   -0.0162629486222833
    -0.0046049184652602   10.3133016564936195   -0.0146652818505643
    -0.0163256007001180   -0.0148363424652519   10.2871726368733523
   Li   Sc   Cl
    17     5    32
Direct
  0.3725387888670521  0.3722848677401475  0.8831062597718561
  0.5059297133489576  0.7505448849145998  0.2513682411439166
  0.2606248828374125  0.7393423927409447  0.5167421371036258
  0.7507757612385008  0.4949395522626032  0.2507692965323334
  0.5058628382794093  0.0150947047463529  0.5058136409510594
  0.7723969560088099  0.7719116814953750  0.0059740772339244
  0.5047761535297776  0.4726694361825882  0.5052483188310770
  0.4940783220915143  0.7504292228673399  0.7494917219029110
  0.2378842723784331  0.7609307587388970  0.9833315035830851
  0.2607790275487124  0.2499799404889914  0.4942069660042628
  0.7608932787696743  0.2599467586162624  0.0165140557056758
  0.5059824508842826  0.2501005598581010  0.2614132032701301
 -0.0024758803658171  0.7554754813956980  0.2428022899699125
  0.7495386442012422  0.7504745967798533  0.5045364527557926
  0.2504457222014798  0.9833679184993968  0.7509923686541650
  0.7587975469294850  0.0347216483331560  0.2503073628089513
  0.0055888993020144  0.5163787628963419  0.0055404945016828
  0.2496659419523974  0.4946163587712671  0.2507095335006756
  0.7501361560936103  0.5056616291779510  0.7498649042374883
  0.0052812845585110  0.2499318091198905  0.7609203229514718
  0.4950270824785423  0.0054455891414349  0.9950399855681413
  0.9947973751709307  0.9947814430515864  0.4945597388968056
  0.2595388918205191  0.2625605457133747  0.2517924811014000
  0.7441725154058962  0.5101485578169910  0.5116512664765427
  0.4993712747004606 -0.0005917283636305  0.7570952411845784
  0.0024592628629842  0.7469774234592681  0.0108008916565103
  0.2613378141659270 -0.0031310805428066  0.9950895370729113
  0.7457129203203211  0.7417840088418735  0.7554065248707660
  0.4924758817498049  0.2418041974850952  0.4955800567566340
  0.0113746831777440  0.5068982613026601  0.2484306762080906
  0.5024758818688762  0.7663503843938415  0.5012214943910690
  0.7555843955852545  0.5058988441568965  0.9917908889978624
 -0.0009614857834933  0.0102097482040223  0.7449030478228200
  0.0006068412343877  0.2626452498485946  0.9921795506673053
  0.4960032911573913  0.5047590805426241  0.2590650124499780
  0.2393492296086402 -0.0027768108708411  0.5071492181640960
  0.2620714657514986  0.7520822963090350  0.7500935754012719
  0.5091711618304691  0.0004734657029878  0.2426096069934301
  0.7434636632806728  0.2661761950500839  0.2449805168137817
  0.9939178574875316  0.4934065045839864  0.7488460546398867
  0.2594902133168549  0.4989955211805036  0.4920750698720768
  0.7393293068533108  0.0070203463348090  0.0068853673258451
  0.2506900642480094  0.5143044356209658  0.0094494543180542
  0.9942652172444644 -0.0002847383506337  0.2624019082895409
  0.5100554447772396  0.5007563167879304  0.7464919186364515
  0.7563824607538530  0.9936844433551707  0.4968180873824349
  0.0048337160617862  0.2395083226362591  0.5147413896613731
  0.5061583702827980  0.7638493793744180  0.0036698708938295
  0.5094390835155489  0.2446680871805122  0.0087748515152495
  0.0010081043740757  0.7594806961488648  0.4999580487785587
  0.7604124513240472  0.2629480448284209  0.7566275167845629
  0.2571995358805536  0.7384448776471053  0.2573296174462603
  0.7498118879893619  0.7368427444767200  0.2512465855129042
  0.2434733588482637  0.2450763613261160  0.7445917960349765

  0.00000000E+00  0.00000000E+00  0.00000000E+00
  0.00000000E+00  0.00000000E+00  0.00000000E+00
  0.00000000E+00  0.00000000E+00  0.00000000E+00
  0.00000000E+00  0.00000000E+00  0.00000000E+00
  0.00000000E+00  0.00000000E+00  0.00000000E+00
  0.00000000E+00  0.00000000E+00  0.00000000E+00
  0.00000000E+00  0.00000000E+00  0.00000000E+00
  0.00000000E+00  0.00000000E+00  0.00000000E+00
  0.00000000E+00  0.00000000E+00  0.00000000E+00
  0.00000000E+00  0.00000000E+00  0.00000000E+00
  0.00000000E+00  0.00000000E+00  0.00000000E+00
  0.00000000E+00  0.00000000E+00  0.00000000E+00
  0.00000000E+00  0.00000000E+00  0.00000000E+00
  0.00000000E+00  0.00000000E+00  0.00000000E+00
  0.00000000E+00  0.00000000E+00  0.00000000E+00
  0.00000000E+00  0.00000000E+00  0.00000000E+00
  0.00000000E+00  0.00000000E+00  0.00000000E+00
  0.00000000E+00  0.00000000E+00  0.00000000E+00
  0.00000000E+00  0.00000000E+00  0.00000000E+00
  0.00000000E+00  0.00000000E+00  0.00000000E+00
  0.00000000E+00  0.00000000E+00  0.00000000E+00
  0.00000000E+00  0.00000000E+00  0.00000000E+00
  0.00000000E+00  0.00000000E+00  0.00000000E+00
  0.00000000E+00  0.00000000E+00  0.00000000E+00
  0.00000000E+00  0.00000000E+00  0.00000000E+00
  0.00000000E+00  0.00000000E+00  0.00000000E+00
  0.00000000E+00  0.00000000E+00  0.00000000E+00
  0.00000000E+00  0.00000000E+00  0.00000000E+00
  0.00000000E+00  0.00000000E+00  0.00000000E+00
  0.00000000E+00  0.00000000E+00  0.00000000E+00
  0.00000000E+00  0.00000000E+00  0.00000000E+00
  0.00000000E+00  0.00000000E+00  0.00000000E+00
  0.00000000E+00  0.00000000E+00  0.00000000E+00
  0.00000000E+00  0.00000000E+00  0.00000000E+00
  0.00000000E+00  0.00000000E+00  0.00000000E+00
  0.00000000E+00  0.00000000E+00  0.00000000E+00
  0.00000000E+00  0.00000000E+00  0.00000000E+00
  0.00000000E+00  0.00000000E+00  0.00000000E+00
  0.00000000E+00  0.00000000E+00  0.00000000E+00
  0.00000000E+00  0.00000000E+00  0.00000000E+00
  0.00000000E+00  0.00000000E+00  0.00000000E+00
  0.00000000E+00  0.00000000E+00  0.00000000E+00
  0.00000000E+00  0.00000000E+00  0.00000000E+00
  0.00000000E+00  0.00000000E+00  0.00000000E+00
  0.00000000E+00  0.00000000E+00  0.00000000E+00
  0.00000000E+00  0.00000000E+00  0.00000000E+00
  0.00000000E+00  0.00000000E+00  0.00000000E+00
  0.00000000E+00  0.00000000E+00  0.00000000E+00
  0.00000000E+00  0.00000000E+00  0.00000000E+00
  0.00000000E+00  0.00000000E+00  0.00000000E+00
  0.00000000E+00  0.00000000E+00  0.00000000E+00
  0.00000000E+00  0.00000000E+00  0.00000000E+00
  0.00000000E+00  0.00000000E+00  0.00000000E+00
  0.00000000E+00  0.00000000E+00  0.00000000E+00
