opti conp comp
cell
8.497129 10.434411 4.832191 79.704163 111.293907 87.979309
frac
Li core 0.597441 0.774779 0.108058
Li core 0.469720 0.097690 -0.116885
Li core 0.042156 0.410868 0.047856
Li core -0.126744 0.734164 -0.198345
Li core 0.426113 0.304841 0.310859
Li core -0.133086 0.535415 0.393741
Sc core -0.031177 0.022543 -0.217385
Sc core 0.527945 0.531588 0.150518
Cl core 0.878371 -0.032670 0.218495
Cl core 0.209672 -0.104881 0.841871
Cl core 0.263433 0.620391 0.086675
Cl core 0.703271 0.313239 0.065934
Cl core 0.416548 0.856983 0.463281
Cl core 0.662704 0.014297 0.528411
Cl core 0.801974 0.223777 0.689188
Cl core 0.198828 0.083002 0.217751
Cl core 0.094270 0.224543 0.605160
Cl core 0.269036 0.445428 0.672259
Cl core 0.134544 0.716526 0.456373
Cl core 0.594981 0.558476 0.676187
space
1
species
Li core 1.000
Sc core 3.000
Cl core -1.000
buckingham
Li core Li core   360.53 0.1610  0.00 0 12
Li core Cl core   220.00 0.3400  0.00 0 12
Sc core Cl core 26156.48 0.2499  0.00 0 12
Cl core Cl core  1227.20 0.3210 14.53 0 12
dump halospinel.grs
