opti conp comp
cell
6.398 11.04 6.391 90 109.89 90
frac
Li core 0.50000 0.83470 0.00000
Li core 0.50000 0.16530 0.00000
Li core 0.00000 0.33470 0.00000
Li core 0.00000 0.66530 0.00000
Li core 0.50000 0.33100 0.50000
Li core 0.00000 0.50000 0.50000
Sc core 0.00000 0.00000 0.00000
Sc core 0.50000 0.50000 0.00000
Cl core 0.75790 0.00000 0.23130
Cl core 0.24210 0.00000 0.76870
Cl core 0.25790 0.50000 0.23130
Cl core 0.74210 0.50000 0.76870
Cl core 0.23870 0.83910 0.23710
Cl core 0.76130 0.83910 0.76290
Cl core 0.76130 0.16090 0.76290
Cl core 0.23870 0.16090 0.23710
Cl core 0.73870 0.33910 0.23710
Cl core 0.26130 0.33910 0.76290
Cl core 0.26130 0.66090 0.76290
Cl core 0.73870 0.66090 0.23710
Cl shel 0.75790 0.00000 0.23130
Cl shel 0.24210 0.00000 0.76870
Cl shel 0.25790 0.50000 0.23130
Cl shel 0.74210 0.50000 0.76870
Cl shel 0.23870 0.83910 0.23710
Cl shel 0.76130 0.83910 0.76290
Cl shel 0.76130 0.16090 0.76290
Cl shel 0.23870 0.16090 0.23710
Cl shel 0.73870 0.33910 0.23710
Cl shel 0.26130 0.33910 0.76290
Cl shel 0.26130 0.66090 0.76290
Cl shel 0.73870 0.66090 0.23710
space
1
species
Li core 1.000
Sc core 3.000
Cl core 1.485
Cl shel -2.485
spring
Cl 36.07
buckingham
Li core Li core  360.53 0.1610  0.00 0 12
Li core Cl shel  421.04 0.3340  0.00 0 12
Sc core Cl shel 2456.22 0.3147  0.00 0 12
Cl shel Cl shel 1227.20 0.3210 14.53 0 12
dump halospinel.grs
