# Compound: Li17Sc5Cl32. Old comment: Cl
   1.0000000000000000     
    10.3030776697317314   -0.0018537773595440   -0.0452938224150347
    -0.0017821244617535   10.2175530622346287   -0.0123053920415383
    -0.0443504478554813   -0.0122910390922985   10.3977826650561465
   Li   Sc   Cl
    17     5    32
Direct
  0.3828082718059915  0.3717114329950851  0.8829774346466690
  0.2502067746871633  0.7603039200871916  0.5055085425361325
  0.0060015570445887  0.7605655293260803  0.7504554060700929
  0.7498590919628432  0.4945572047828440  0.2503281315917229
  0.4937971591105310  0.0059447604918134  0.5058659692709357
  0.1163795597249650  0.9159859122747838  0.1160741371214355
  0.4945602908545254  0.4941649587758702  0.4949294674604197
  0.4937203017029470  0.7504197579353641  0.7488307159807359
  0.2543847919085590  0.7314527589482180  0.9687516303643852
  0.2553953238845535  0.2411626133581124  0.4938449653821882
  0.7610200241029661  0.2504273248837159  0.0052168094696912
  0.4942498364603977  0.2602768778648961  0.2612071726789184
  0.9939674750418654  0.7281720338279882  0.2835187816949148
  0.7390644438434185  0.7504051680080873  0.5054372415341667
  0.2505371354202593  0.9943859033244031  0.7391788129604013
 -0.0050669363612581  0.5057026832148851  0.0055694883909181
  0.0152758565713715  0.9991145047862368  0.5066405472029203
  0.2495509962669258  0.4948644693726661  0.2503617647537564
  0.7494381096860633  0.5048688162314809  0.7497143343617063
  0.0053676652545374  0.2403160482526551  0.7499723230750960
  0.5038134427363701  0.9937137721822676  0.9885125641503381
  0.7498963456425781 -0.0039990014360757  0.2560945454467581
  0.2508852352659571  0.2607415913918290  0.2502684709757064
  0.7408274606198536  0.5062465916565162  0.5103242120539782
  0.5021055485297179  0.0007481513402536  0.7561829869843104
  0.0183239681116569  0.7503615415857506 -0.0065189948393202
  0.2666977047474606  0.0073908860285248  0.9865198083151435
  0.7561123184172670  0.7415969446429491  0.7498667319981105
  0.4881486458529684  0.2466479961923532  0.4888913467952843
  0.0023836627437397  0.4982536099592929  0.2431795219168911
  0.4980047760811288  0.7550442503053278  0.5132344278901889
  0.7544736781210448  0.4958896250957478  0.9902000799538661
  0.0036004404752247  0.0040347343450948  0.7510599047388834
  0.9969733524339478  0.2545267887678281  0.9846475575930411
  0.4919588979292091  0.5013462647471222  0.2529175934843744
  0.2534512204113503  0.9988944010346814  0.5058351937650422
  0.2475391868176125  0.7544253457466347  0.7435993152297278
  0.5065838516583895 -0.0051213008904954  0.2354758781974399
  0.7431726554506127  0.2410168585045810  0.2440583656887044
  0.9929471986625719  0.4943324838870864  0.7514666758271445
  0.2513774930187904  0.5062562170877863  0.4843427955376896
  0.7461432090532142 -0.0033327527358778  0.0120638579689848
  0.2450689946841567  0.5002308613081571  0.0099515438092456
  0.9862102522408724  0.0029529247888240  0.2669533722811145
  0.5103044202060126  0.5020593885522061  0.7453147206451823
  0.7371376423932714  0.9972155741733979  0.4876552360464126
  0.0066419935265435  0.2402317372884027  0.5174363723284664
  0.4926194533120932  0.7581733128332752  0.9883752508445055
  0.5149249964187391  0.2378901323259622  0.0079891039647467
  0.9967976504615927  0.7626957064120120  0.5107517119173988
  0.7603673485798286  0.2594798344069295  0.7508713091480008
  0.2330236116006397  0.7445378208399892  0.2463256167135582
  0.7567874953024228  0.7526879446592556  0.2568475865793265
  0.2441781095199531  0.2490270942300282  0.7449216695025423

  0.00000000E+00  0.00000000E+00  0.00000000E+00
  0.00000000E+00  0.00000000E+00  0.00000000E+00
  0.00000000E+00  0.00000000E+00  0.00000000E+00
  0.00000000E+00  0.00000000E+00  0.00000000E+00
  0.00000000E+00  0.00000000E+00  0.00000000E+00
  0.00000000E+00  0.00000000E+00  0.00000000E+00
  0.00000000E+00  0.00000000E+00  0.00000000E+00
  0.00000000E+00  0.00000000E+00  0.00000000E+00
  0.00000000E+00  0.00000000E+00  0.00000000E+00
  0.00000000E+00  0.00000000E+00  0.00000000E+00
  0.00000000E+00  0.00000000E+00  0.00000000E+00
  0.00000000E+00  0.00000000E+00  0.00000000E+00
  0.00000000E+00  0.00000000E+00  0.00000000E+00
  0.00000000E+00  0.00000000E+00  0.00000000E+00
  0.00000000E+00  0.00000000E+00  0.00000000E+00
  0.00000000E+00  0.00000000E+00  0.00000000E+00
  0.00000000E+00  0.00000000E+00  0.00000000E+00
  0.00000000E+00  0.00000000E+00  0.00000000E+00
  0.00000000E+00  0.00000000E+00  0.00000000E+00
  0.00000000E+00  0.00000000E+00  0.00000000E+00
  0.00000000E+00  0.00000000E+00  0.00000000E+00
  0.00000000E+00  0.00000000E+00  0.00000000E+00
  0.00000000E+00  0.00000000E+00  0.00000000E+00
  0.00000000E+00  0.00000000E+00  0.00000000E+00
  0.00000000E+00  0.00000000E+00  0.00000000E+00
  0.00000000E+00  0.00000000E+00  0.00000000E+00
  0.00000000E+00  0.00000000E+00  0.00000000E+00
  0.00000000E+00  0.00000000E+00  0.00000000E+00
  0.00000000E+00  0.00000000E+00  0.00000000E+00
  0.00000000E+00  0.00000000E+00  0.00000000E+00
  0.00000000E+00  0.00000000E+00  0.00000000E+00
  0.00000000E+00  0.00000000E+00  0.00000000E+00
  0.00000000E+00  0.00000000E+00  0.00000000E+00
  0.00000000E+00  0.00000000E+00  0.00000000E+00
  0.00000000E+00  0.00000000E+00  0.00000000E+00
  0.00000000E+00  0.00000000E+00  0.00000000E+00
  0.00000000E+00  0.00000000E+00  0.00000000E+00
  0.00000000E+00  0.00000000E+00  0.00000000E+00
  0.00000000E+00  0.00000000E+00  0.00000000E+00
  0.00000000E+00  0.00000000E+00  0.00000000E+00
  0.00000000E+00  0.00000000E+00  0.00000000E+00
  0.00000000E+00  0.00000000E+00  0.00000000E+00
  0.00000000E+00  0.00000000E+00  0.00000000E+00
  0.00000000E+00  0.00000000E+00  0.00000000E+00
  0.00000000E+00  0.00000000E+00  0.00000000E+00
  0.00000000E+00  0.00000000E+00  0.00000000E+00
  0.00000000E+00  0.00000000E+00  0.00000000E+00
  0.00000000E+00  0.00000000E+00  0.00000000E+00
  0.00000000E+00  0.00000000E+00  0.00000000E+00
  0.00000000E+00  0.00000000E+00  0.00000000E+00
  0.00000000E+00  0.00000000E+00  0.00000000E+00
  0.00000000E+00  0.00000000E+00  0.00000000E+00
  0.00000000E+00  0.00000000E+00  0.00000000E+00
  0.00000000E+00  0.00000000E+00  0.00000000E+00
